Tc2 B4
1.0
   1.4453590682151525   -2.5034353413290549    0.0000000000000000
   1.4453590682151525    2.5034353413290549    0.0000000000000000
   0.0000000000000000    0.0000000000000000    7.4353128899999996
Tc B
2 4
direct
   0.3333333333333333    0.6666666666666666    0.2500000000000000 Tc
   0.6666666666666667    0.3333333333333334    0.7500000000000000 Tc
   0.3333333333333333    0.6666666666666666    0.9520462599999999 B
   0.6666666666666667    0.3333333333333334    0.0479537400000001 B
   0.6666666666666667    0.3333333333333333    0.4520462599999999 B
   0.3333333333333333    0.6666666666666667    0.5479537400000001 B
