KPOINTS automatic
0
Gamma
15 15 11
0 0 0
