ALGO = Fast
EDIFF = 0.0002
IBRION = 2
ISIF = 3
ISMEAR = -5
ISPIN = 2
LASPH = True
LORBIT = 11
LREAL = Auto
LWAVE = False
MAGMOM = 4*0.6
NELM = 100
NSW = 99
PREC = Accurate
SIGMA = 0.05
ENCUT = 648.7442
