Li2 B2
1.0
   2.0048519129829021   -3.4725053749380441    0.0000000000000000
   2.0048519129829021    3.4725053749380441    0.0000000000000000
   0.0000000000000000    0.0000000000000000    3.0953802200000000
Li B
2 2
direct
   0.3333333333333333    0.6666666666666666    0.2500000000000000 Li
   0.6666666666666667    0.3333333333333334    0.7500000000000000 Li
   0.0000000000000000    0.0000000000000000    0.2500000000000000 B
   0.0000000000000000    0.0000000000000000    0.7500000000000000 B
