Mg4 B16
1.0
   4.3781539599999997    0.0000000000000000    0.0000000000000003
  -0.0000000000000003    5.4694777600000002    0.0000000000000003
   0.0000000000000000    0.0000000000000000    7.4129689299999999
Mg B
4 16
direct
   0.7500000000000000    0.4537971600000001    0.6390715900000000 Mg
   0.2500000000000000    0.5462028399999999    0.3609284100000000 Mg
   0.7500000000000000    0.9537971600000001    0.8609284100000000 Mg
   0.2500000000000000    0.0462028399999999    0.1390715899999999 Mg
   0.7500000000000000    0.7783732500000000    0.1527098900000001 B
   0.2500000000000000    0.2216267500000000    0.8472901099999999 B
   0.7500000000000000    0.2783732500000000    0.3472901099999999 B
   0.2500000000000000    0.7216267500000000    0.6527098900000001 B
   0.7500000000000000    0.9469065999999999    0.3525976800000001 B
   0.2500000000000000    0.0530934000000001    0.6474023199999999 B
   0.7500000000000000    0.4469065999999999    0.1474023199999999 B
   0.2500000000000000    0.5530934000000001    0.8525976800000001 B
   0.9420008200000000    0.3669013900000000    0.9371572600000002 B
   0.4420008200000001    0.6330986100000000    0.0628427399999998 B
   0.5579991800000000    0.8669013900000000    0.5628427399999998 B
   0.0579991800000000    0.1330986100000000    0.4371572600000002 B
   0.0579991800000000    0.6330986100000000    0.0628427399999998 B
   0.5579991800000000    0.3669013900000000    0.9371572600000002 B
   0.4420008200000001    0.1330986100000000    0.4371572600000002 B
   0.9420008200000000    0.8669013900000000    0.5628427399999998 B
