Nd1 B6
1.0
   4.1295829399999997    0.0000000000000000    0.0000000000000003
  -0.0000000000000003    4.1295829399999997    0.0000000000000003
   0.0000000000000000    0.0000000000000000    4.1295829399999997
Nd B
1 6
direct
   0.0000000000000000    0.0000000000000000    0.0000000000000000 Nd
   0.8001338800000000    0.5000000000000000    0.5000000000000000 B
   0.1998661200000000    0.5000000000000000    0.5000000000000000 B
   0.5000000000000000    0.5000000000000000    0.8001338800000000 B
   0.5000000000000000    0.5000000000000000    0.1998661200000000 B
   0.5000000000000000    0.1998661200000000    0.5000000000000000 B
   0.5000000000000000    0.8001338800000000    0.5000000000000000 B
