Mg1
1.0
   1.5251499002596738   -2.6416371164083605    0.0000000000000000
   1.5251499002596738    2.6416371164083605    0.0000000000000000
   0.0000000000000000    0.0000000000000000    3.0448375699999999
Mg
1
direct
   0.0000000000000000    0.0000000000000000    0.0000000000000000 Mg
