&CONTROL
  calculation = 'vc-relax',
  etot_conv_thr = 1d-05,
  forc_conv_thr = 0.0001,
  nstep = 300,
  outdir = './',
  prefix = 'B16Mg8',
  pseudo_dir = '../../pp/',
  restart_mode = 'from_scratch',
  tprnfor = .TRUE.,
  tstress = .TRUE.,
/
&SYSTEM
starting_magnetization(1) = 0
starting_magnetization(2) = -1
starting_magnetization(3) = 1
nspin = 2,
  degauss = 0.02,
  ecutrho = 280,
  ecutwfc = 35,
  occupations = 'smearing',
  smearing = 'gauss',
  ibrav = 0,
  nat = 24,
  ntyp = 3,
/
&ELECTRONS
  conv_thr = 1d-16,
  diagonalization = 'david',
  electron_maxstep = 300,
  mixing_beta = 0.7,
  mixing_mode = 'plain',
/
&IONS
  ion_dynamics = 'bfgs',
/
&CELL
  cell_dynamics = 'bfgs',
  press_conv_thr = 0.05,
/
ATOMIC_SPECIES
  B  10.8110 B.upf
  Mg2  24.3050 Mg.upf
  Mg1  24.3050 Mg.upf
ATOMIC_POSITIONS crystal
Mg2 0.0 0.8750000000000001 0.75
Mg2 0.0 0.125 0.24999999999999997
Mg2 0.5 0.37500000000000006 0.75
Mg2 0.5 0.625 0.24999999999999997
Mg1 0.5 0.8750000000000001 0.75
Mg1 0.0 0.625 0.24999999999999997
Mg1 0.0 0.37500000000000006 0.75
Mg1 0.5 0.125 0.24999999999999997
B 0.75 0.12499974999999998 0.9166664999999999
B 0.25 0.12499974999999998 0.9166664999999999
B 0.75 0.8750002500000001 0.41666649999999983
B 0.25 0.8750002500000001 0.41666649999999983
B 0.25 0.8750002500000001 0.08333350000000006
B 0.75 0.8750002500000001 0.08333350000000006
B 0.25 0.6249997500000001 0.5833335000000001
B 0.75 0.6249997500000001 0.5833335000000001
B 0.25 0.6249997500000001 0.9166664999999999
B 0.75 0.6249997500000001 0.9166664999999999
B 0.25 0.37500025000000003 0.41666649999999983
B 0.75 0.37500025000000003 0.41666649999999983
B 0.75 0.37500025000000003 0.08333350000000006
B 0.25 0.37500025000000003 0.08333350000000006
B 0.75 0.12499974999999998 0.5833335000000001
B 0.25 0.12499974999999998 0.5833335000000001
K_POINTS automatic
  6 7 8 0 0 0
CELL_PARAMETERS angstrom
7.033164 0.0 0.0
0.0 6.137629 0.0
0.0 0.0 5.315342
