&CONTROL
  calculation = 'vc-relax',
  etot_conv_thr = 1d-05,
  forc_conv_thr = 0.0001,
  nstep = 300,
  outdir = './',
  prefix = 'B16Mg8',
  pseudo_dir = '../../pp/',
  restart_mode = 'from_scratch',
  tprnfor = .TRUE.,
  tstress = .TRUE.,
/
&SYSTEM
starting_magnetization(1) = 0
starting_magnetization(2) = -1
starting_magnetization(3) = 1
nspin = 2,
  degauss = 0.02,
  ecutrho = 280,
  ecutwfc = 35,
  occupations = 'smearing',
  smearing = 'gauss',
  ibrav = 0,
  nat = 24,
  ntyp = 3,
/
&ELECTRONS
  conv_thr = 1d-16,
  diagonalization = 'david',
  electron_maxstep = 300,
  mixing_beta = 0.7,
  mixing_mode = 'plain',
/
&IONS
  ion_dynamics = 'bfgs',
/
&CELL
  cell_dynamics = 'bfgs',
  press_conv_thr = 0.05,
/
ATOMIC_SPECIES
  B  10.8110 B.upf
  Mg2  24.3050 Mg.upf
  Mg1  24.3050 Mg.upf
ATOMIC_POSITIONS crystal
Mg2 0.5 0.49999999999999994 0.375
Mg2 0.0 0.0 0.125
Mg2 0.0 0.0 0.875
Mg2 0.5 0.49999999999999994 0.625
Mg1 0.5 0.49999999999999994 0.125
Mg1 0.0 0.0 0.375
Mg1 0.0 0.0 0.625
Mg1 0.5 0.49999999999999994 0.875
B 0.0 0.6666664999999999 0.25
B 0.5 0.16666649999999994 0.0
B 0.5 0.16666650000000002 0.25
B 0.0 0.6666664999999999 0.0
B 0.5 0.8333335 0.25
B 0.0 0.3333334999999999 0.0
B 0.0 0.3333334999999999 0.25
B 0.5 0.8333335 0.0
B 0.5 0.16666650000000002 0.75
B 0.0 0.6666664999999999 0.5
B 0.0 0.6666664999999999 0.75
B 0.5 0.16666650000000002 0.5
B 0.0 0.3333334999999999 0.75
B 0.5 0.8333335 0.5
B 0.5 0.8333335 0.75
B 0.0 0.33333350000000017 0.5
K_POINTS automatic
  13 8 3 0 0 0
CELL_PARAMETERS angstrom
3.068814 0.0 0.0
0.0 5.315342 0.0
0.0 0.0 14.066328
