&CONTROL
  calculation = 'vc-relax',
  etot_conv_thr = 1d-05,
  forc_conv_thr = 0.0001,
  nstep = 300,
  outdir = './',
  prefix = 'B8Mg4',
  pseudo_dir = '../../pp/',
  restart_mode = 'from_scratch',
  tprnfor = .TRUE.,
  tstress = .TRUE.,
/
&SYSTEM
starting_magnetization(1) = 0
starting_magnetization(2) = -1
starting_magnetization(3) = 1
nspin = 2,
  degauss = 0.02,
  ecutrho = 280,
  ecutwfc = 35,
  occupations = 'smearing',
  smearing = 'gauss',
  ibrav = 0,
  nat = 12,
  ntyp = 3,
/
&ELECTRONS
  conv_thr = 1d-16,
  diagonalization = 'david',
  electron_maxstep = 300,
  mixing_beta = 0.7,
  mixing_mode = 'plain',
/
&IONS
  ion_dynamics = 'bfgs',
/
&CELL
  cell_dynamics = 'bfgs',
  press_conv_thr = 0.05,
/
ATOMIC_SPECIES
  B  10.8110 B.upf
  Mg2  24.3050 Mg.upf
  Mg1  24.3050 Mg.upf
ATOMIC_POSITIONS crystal
Mg2 0.75 0.0 0.37500000000000006
Mg2 0.24999999999999997 0.0 0.625
Mg1 0.24999999999999997 0.0 0.125
Mg1 0.75 0.0 0.8750000000000001
B 0.9166664999999999 0.5 0.6250002500000001
B 0.41666649999999983 0.5 0.37499974999999985
B 0.9166664999999998 0.5 0.12500025000000026
B 0.41666649999999983 0.5 0.8749997499999997
B 0.08333350000000006 0.5 0.37499974999999985
B 0.5833335000000001 0.5 0.12500025000000026
B 0.08333350000000017 0.5 0.8749997499999997
B 0.5833335000000001 0.5 0.6250002500000001
K_POINTS automatic
  8 11 7 0 0 0
CELL_PARAMETERS angstrom
5.315342 0.0 0.0
0.0 3.516582 0.0
0.0 0.0 6.137629
