B4Mg2
1.0
   3.0710685231978059    0.0000000000000000    0.0000000000000000
  -1.5355342615989029    2.6596233578520594    0.0000000000000000
   0.0000000000000000    0.0000000000000000    7.0582444674583549
Mg B
2 4
direct
   0.0000000000000000    0.0000000000000000    0.5000000000000000 Mg,spin=-1.0
   0.0000000000000000    0.0000000000000000    0.0000000000000000 Mg,spin=1.0
   0.3333333333333333    0.6666666666666666    0.2500000000000001 B
   0.3333333333333333    0.6666666666666667    0.7499999999999999 B
   0.6666666666666667    0.3333333333333333    0.2500000000000001 B
   0.6666666666666667    0.3333333333333334    0.7499999999999999 B
