Pm2 B6
1.0
   2.7888744972276180   -4.8304723251313426    0.0000000000000000
   2.7888744972276180    4.8304723251313426    0.0000000000000000
   0.0000000000000000    0.0000000000000000    3.4618330300000002
Pm B
2 6
direct
   0.6666666666666666    0.3333333333333333    0.2500000000000000 Pm
   0.3333333333333334    0.6666666666666667    0.7500000000000000 Pm
   0.8932408900000000    0.1067591100000000    0.7500000000000000 B
   0.2135182200000001    0.1067591100000000    0.7500000000000000 B
   0.8932408900000000    0.7864817799999999    0.7500000000000000 B
   0.1067591100000000    0.8932408900000000    0.2500000000000000 B
   0.7864817799999999    0.8932408900000000    0.2500000000000000 B
   0.1067591100000000    0.2135182200000001    0.2500000000000000 B
