KPOINTS automatic
0
Gamma
13 13 18
0 0 0
