B4 W4
1.0
  -1.5655586208260055    1.5655586208260055    8.4606672593655272
   1.5655586208260055   -1.5655586208260055    8.4606672593655272
   1.5655586208260055    1.5655586208260055   -8.4606672593655272
B W
4 4
direct
   0.4063052450000000    0.9063052450000000    0.4999999999999999 B
   0.6563052450000000    0.6563052449999999    0.0000000000000000 B
   0.3436947550000000    0.3436947550000000    0.0000000000000000 B
   0.0936947550000000    0.5936947549999999    0.5000000000000000 B
   0.5531157050000000    0.0531157049999999    0.4999999999999999 W
   0.8031157050000000    0.8031157049999998    0.0000000000000000 W
   0.1968842950000000    0.1968842950000000    0.0000000000000000 W
   0.9468842949999999    0.4468842949999998    0.5000000000000000 W
