Be8 B2
1.0
   3.3569968399999999    0.0000000000000000    0.0000000000000002
  -0.0000000000000002    3.3569968399999999    0.0000000000000002
   0.0000000000000000    0.0000000000000000    7.0065364700000003
Be B
8 2
direct
   0.0000000000000000    0.0000000000000000    0.0000000000000000 Be
   0.5000000000000000    0.5000000000000000    0.0000000000000000 Be
   0.5000000000000000    0.0000000000000000    0.4802161600000000 Be
   0.0000000000000000    0.5000000000000000    0.5197838400000000 Be
   0.5000000000000000    0.5000000000000000    0.3049614300000000 Be
   0.0000000000000000    0.0000000000000000    0.3049614300000000 Be
   0.0000000000000000    0.0000000000000000    0.6950385700000000 Be
   0.5000000000000000    0.5000000000000000    0.6950385700000000 Be
   0.0000000000000000    0.5000000000000000    0.8304911300000000 B
   0.5000000000000000    0.0000000000000000    0.1695088700000000 B
