B16Mg8
1.0
   7.0582444674583549    0.0000000000000000    0.0000000000000000
   0.0000000000000000    6.1421370463956118    0.0000000000000000
   0.0000000000000000    0.0000000000000000    5.3192467157041197
Mg B
8 16
direct
   0.0000000000000000    0.8750000000000000    0.7500000000000000 Mg,spin=-1.0
   0.0000000000000000    0.1250000000000000    0.2500000000000000 Mg,spin=-1.0
   0.5000000000000000    0.3750000000000000    0.7500000000000000 Mg,spin=-1.0
   0.5000000000000000    0.6250000000000000    0.2500000000000000 Mg,spin=-1.0
   0.5000000000000000    0.8750000000000000    0.7500000000000000 Mg,spin=1.0
   0.0000000000000000    0.6250000000000000    0.2500000000000000 Mg,spin=1.0
   0.0000000000000000    0.3750000000000000    0.7500000000000000 Mg,spin=1.0
   0.5000000000000000    0.1250000000000000    0.2500000000000000 Mg,spin=1.0
   0.7500000000000000    0.1250000000000018    0.9166666666666679 B
   0.7500000000000000    0.6250000000000018    0.9166666666666679 B
   0.7500000000000000    0.8749999999999982    0.4166666666666679 B
   0.2500000000000000    0.8749999999999982    0.4166666666666679 B
   0.2500000000000000    0.8749999999999982    0.0833333333333321 B
   0.7500000000000000    0.8749999999999982    0.0833333333333321 B
   0.7500000000000000    0.1250000000000018    0.5833333333333321 B
   0.7500000000000000    0.6250000000000018    0.5833333333333321 B
   0.2500000000000000    0.6250000000000018    0.9166666666666679 B
   0.2500000000000000    0.1250000000000018    0.9166666666666679 B
   0.2500000000000000    0.3749999999999982    0.4166666666666679 B
   0.7500000000000000    0.3749999999999982    0.4166666666666679 B
   0.7500000000000000    0.3749999999999982    0.0833333333333321 B
   0.2500000000000000    0.3749999999999982    0.0833333333333321 B
   0.2500000000000000    0.6250000000000018    0.5833333333333321 B
   0.2500000000000000    0.1250000000000018    0.5833333333333321 B
