Re6 B2
1.0
   1.4524007650000001   -4.6766377400001087   -0.0000000000000002
   1.4524007649999997    4.6766377400001087    0.0000000000000004
   0.0000000000000000    0.0000000000000000    7.3049541500000004
Re B
6 2
direct
   0.1336894250000000    0.8663105749999997    0.4352026600000001 Re
   0.8663105750000001    0.1336894249999999    0.5647973399999999 Re
   0.5760689750000001    0.4239310249999999    0.7500000000000000 Re
   0.4239310250000000    0.5760689749999999    0.2500000000000000 Re
   0.1336894250000000    0.8663105749999997    0.0647973400000000 Re
   0.8663105750000001    0.1336894249999999    0.9352026600000001 Re
   0.7452075499999999    0.2547924500000000    0.2500000000000000 B
   0.2547924500000001    0.7452075499999997    0.7500000000000000 B
