Mg1
1.0
  -0.0000000000000001    2.2442560000000000    2.2442560000000000
   2.2442560000000000    0.0000000000000000    2.2442560000000000
   2.2442560000000000    2.2442560000000000    0.0000000000000003
Mg
1
direct
   0.0000000000000000    0.0000000000000000    0.0000000000000000 Mg
