B8Mg4
1.0
   3.0710685231978059    0.0000000000000000    0.0000000000000000
  -1.5355342615989029    2.6596233578520594    0.0000000000000000
   0.0000000000000000    0.0000000000000000   14.1164889349167098
Mg B
4 8
direct
   0.0000000000000000    0.0000000000000000    0.3750000000000000 Mg,spin=-1.0
   0.0000000000000000    0.0000000000000000    0.6250000000000000 Mg,spin=-1.0
   0.0000000000000000    0.0000000000000000    0.8750000000000000 Mg,spin=1.0
   0.0000000000000000    0.0000000000000000    0.1250000000000000 Mg,spin=1.0
   0.3333333333333333    0.6666666666666666    0.0000000000000000 B
   0.3333333333333333    0.6666666666666666    0.2500000000000002 B
   0.3333333333333333    0.6666666666666666    0.5000000000000000 B
   0.3333333333333333    0.6666666666666667    0.7499999999999998 B
   0.6666666666666667    0.3333333333333334    0.0000000000000000 B
   0.6666666666666667    0.3333333333333333    0.2500000000000002 B
   0.6666666666666667    0.3333333333333334    0.5000000000000000 B
   0.6666666666666667    0.3333333333333334    0.7499999999999998 B
