&CONTROL
  calculation = 'vc-relax',
  etot_conv_thr = 1d-05,
  forc_conv_thr = 0.0001,
  nstep = 300,
  outdir = './',
  prefix = 'B2Mg1',
  pseudo_dir = '../../pp/',
  restart_mode = 'from_scratch',
  tprnfor = .TRUE.,
  tstress = .TRUE.,
/
&SYSTEM
  degauss = 0.02,
  ecutrho = 280,
  ecutwfc = 35,
  occupations = 'smearing',
  smearing = 'gauss',
  ibrav = 0,
  nat = 3,
  ntyp = 2,
/
&ELECTRONS
  conv_thr = 1d-16,
  diagonalization = 'david',
  electron_maxstep = 300,
  mixing_beta = 0.7,
  mixing_mode = 'plain',
/
&IONS
  ion_dynamics = 'bfgs',
/
&CELL
/
ATOMIC_SPECIES
  B  10.8110 B.upf
  Mg  24.3050 Mg.upf
ATOMIC_POSITIONS crystal
Mg            0.0000000000        0.0000000000        0.0000000000
B             0.5000000000        0.6666453473        0.6663945100
B             0.5000000000        0.3333546527        0.3336054900
K_POINTS automatic
  15 11 15 0 0 0
CELL_PARAMETERS angstrom
   3.514152938   0.000000000   0.000000000
   0.000000000   3.069799135   0.047505346
   0.000000000   1.493929707   2.681081012
