&CONTROL
  calculation = 'vc-relax',
  etot_conv_thr = 1d-05,
  forc_conv_thr = 0.0001,
  nstep = 300,
  outdir = './',
  prefix = 'B2Mg1',
  pseudo_dir = '../../pp/',
  restart_mode = 'from_scratch',
  tprnfor = .TRUE.,
  tstress = .TRUE.,
/
&SYSTEM
  degauss = 0.02,
  ecutrho = 280,
  ecutwfc = 35,
  occupations = 'smearing',
  smearing = 'gauss',
  ibrav = 0,
  nat = 3,
  ntyp = 2,
/
&ELECTRONS
  conv_thr = 1d-16,
  diagonalization = 'david',
  electron_maxstep = 300,
  mixing_beta = 0.7,
  mixing_mode = 'plain',
/
&IONS
  ion_dynamics = 'bfgs',
/
&CELL
/
ATOMIC_SPECIES
  B  10.8110 B.upf
  Mg  24.3050 Mg.upf
ATOMIC_POSITIONS crystal
Mg            0.0000000000        0.0000000000        0.0000000000
B             0.6429248468        0.6429248468        0.5358175225
B             0.3570751532        0.3570751532        0.4641824775
K_POINTS automatic
  15 15 11 0 0 0
CELL_PARAMETERS angstrom
   1.519142743   2.590677644  -0.450488445
  -1.519142743   2.590677644  -0.450488445
  -0.000000000   4.171316725   3.482180579
