B12
1.0
   4.4076991405180737   -2.4491963929344571    0.0000000000000000
   4.4076991405180737    2.4491963929344571    0.0000000000000000
   3.0467707332180032    0.0000000000000000    4.0179052731109977
B
12
direct
   0.6542851199999999    0.0099700399999998    0.0099700399999999 B
   0.0099700400000000    0.0099700400000000    0.6542851199999998 B
   0.0099700400000000    0.6542851199999997    0.0099700399999999 B
   0.9900299599999999    0.3457148799999998    0.9900299599999999 B
   0.3457148799999998    0.9900299599999999    0.9900299599999998 B
   0.9900299599999999    0.9900299599999999    0.3457148800000001 B
   0.6316348299999998    0.2205655700000000    0.2205655699999999 B
   0.2205655700000001    0.2205655700000000    0.6316348299999998 B
   0.2205655700000000    0.6316348299999996    0.2205655700000000 B
   0.7794344300000000    0.3683651700000004    0.7794344300000002 B
   0.3683651700000005    0.7794344299999998    0.7794344300000001 B
   0.7794344300000000    0.7794344300000000    0.3683651700000002 B
