B8Mg4
1.0
   3.0710685231978059    0.0000000000000000    0.0000000000000000
   0.0000000000000000    5.3192467157041197    0.0000000000000000
   0.0000000000000000    0.0000000000000000    7.0582444674583549
Mg B
4 8
direct
   0.5000000000000000    0.5000000000000000    0.0000000000000000 Mg,spin=-1.0
   0.0000000000000000    0.0000000000000000    0.5000000000000000 Mg,spin=-1.0
   0.0000000000000000    0.0000000000000000    0.0000000000000000 Mg,spin=1.0
   0.5000000000000000    0.5000000000000000    0.5000000000000000 Mg,spin=1.0
   0.0000000000000000    0.6666666666666679    0.7500000000000000 B
   0.0000000000000000    0.6666666666666679    0.2500000000000000 B
   0.0000000000000000    0.3333333333333321    0.2500000000000000 B
   0.0000000000000000    0.3333333333333321    0.7500000000000000 B
   0.5000000000000000    0.1666666666666679    0.2500000000000000 B
   0.5000000000000000    0.1666666666666679    0.7500000000000000 B
   0.5000000000000000    0.8333333333333321    0.7500000000000000 B
   0.5000000000000000    0.8333333333333321    0.2500000000000000 B
