EDIFF = 1E-06
NPAR = 2
NSIM = 2
IALGO = 38
ENCUT = 600
ENAUG = 800
PREC = Accurate
ISPIN = 1
LREAL = .False.
IBRION = 2
GGA = PE
LSCALAPACK = .FALSE.
LORBIT = 11
LCHARG = .True.
LWAVE = .True.
NSW = 0
NELM = 200
ISIF = 2
ISMEAR = -5
NEDOS = 3000
