KPOINTS automatic
0
Gamma
30 30 22
0 0 0
