B2 Pd4
1.0
   3.1513499199999999    0.0000000000000000    0.0000000000000002
  -0.0000000000000003    4.7178556599999997    0.0000000000000003
   0.0000000000000000    0.0000000000000000    5.1402767599999999
B Pd
2 4
direct
   0.5000000000000000    0.5000000000000000    0.5000000000000000 B
   0.0000000000000000    0.0000000000000000    0.0000000000000000 B
   0.5000000000000000    0.7547627900000000    0.1557776300000000 Pd
   0.5000000000000000    0.2452372100000000    0.8442223700000000 Pd
   0.0000000000000000    0.7452372100000000    0.6557776300000000 Pd
   0.0000000000000000    0.2547627900000000    0.3442223700000000 Pd
