B6 Os4
1.0
   1.4663592769185885   -2.5398087697729559    0.0000000000000000
   1.4663592769185885    2.5398087697729559    0.0000000000000000
   0.0000000000000000    0.0000000000000000   12.8922385399999992
B Os
6 4
direct
   0.3333333333333333    0.6666666666666666    0.5307805900000000 B
   0.6666666666666667    0.3333333333333334    0.4692194100000000 B
   0.6666666666666667    0.3333333333333333    0.0307805900000000 B
   0.3333333333333333    0.6666666666666667    0.9692194100000000 B
   0.3333333333333333    0.6666666666666666    0.7500000000000000 B
   0.6666666666666667    0.3333333333333334    0.2500000000000000 B
   0.3333333333333333    0.6666666666666666    0.3602245400000000 Os
   0.6666666666666667    0.3333333333333334    0.6397754600000000 Os
   0.6666666666666667    0.3333333333333333    0.8602245400000000 Os
   0.3333333333333333    0.6666666666666667    0.1397754600000000 Os
