B16Mg8
1.0
   7.6974201416177630    0.0000000000000000    0.0000000000000000
   0.0000000000000000    5.3192467157041197    0.0000000000000000
  -2.4505514057062103    0.0000000000000000    5.6321084244443238
Mg B
8 16
direct
   0.7500000000000000    0.0000000000000000    0.3750000000000000 Mg,spin=-1.0
   0.7500000000000000    0.5000000000000000    0.6250000000000000 Mg,spin=-1.0
   0.2500000000000000    0.5000000000000000    0.3750000000000000 Mg,spin=-1.0
   0.2500000000000000    0.0000000000000000    0.6250000000000000 Mg,spin=-1.0
   0.7500000000000000    0.0000000000000000    0.8750000000000000 Mg,spin=1.0
   0.7500000000000000    0.5000000000000000    0.1250000000000000 Mg,spin=1.0
   0.2500000000000000    0.5000000000000000    0.8750000000000000 Mg,spin=1.0
   0.2500000000000000    0.0000000000000000    0.1250000000000000 Mg,spin=1.0
   0.5000000000000000    0.3333333333333357    0.2500000000000000 B
   0.0000000000000000    0.3333333333333357    0.5000000000000000 B
   0.5000000000000000    0.3333333333333357    0.7500000000000000 B
   0.0000000000000000    0.3333333333333357    0.0000000000000000 B
   0.5000000000000000    0.6666666666666643    0.2500000000000000 B
   0.0000000000000000    0.6666666666666643    0.5000000000000000 B
   0.5000000000000000    0.6666666666666643    0.7500000000000000 B
   0.0000000000000000    0.6666666666666643    0.0000000000000000 B
   0.0000000000000000    0.8333333333333357    0.2500000000000000 B
   0.5000000000000000    0.8333333333333357    0.5000000000000000 B
   0.0000000000000000    0.8333333333333357    0.7500000000000000 B
   0.5000000000000000    0.8333333333333357    0.0000000000000000 B
   0.0000000000000000    0.1666666666666643    0.2500000000000000 B
   0.5000000000000000    0.1666666666666643    0.5000000000000000 B
   0.0000000000000000    0.1666666666666643    0.7500000000000000 B
   0.5000000000000000    0.1666666666666643    0.0000000000000000 B
