B4 Mo2
1.0
   7.0133932146635924   -1.5074012640422561    0.0000000000000000
   7.0133932146635924    1.5074012640422561    0.0000000000000000
   6.6894047398572249    0.0000000000000000    2.5907155730996818
B Mo
4 2
direct
   0.8183309700000000    0.8183309700000000    0.8183309700000000 B
   0.1816690300000000    0.1816690300000000    0.1816690300000000 B
   0.3321028500000001    0.3321028500000001    0.3321028500000001 B
   0.6678971499999999    0.6678971499999998    0.6678971499999999 B
   0.9243471400000000    0.9243471400000000    0.9243471400000000 Mo
   0.0756528600000000    0.0756528600000000    0.0756528600000000 Mo
