B1 Ir1
1.0
   1.5210540395752243   -2.6345428776021702    0.0000000000000000
   1.5210540395752243    2.6345428776021702    0.0000000000000000
   0.0000000000000000    0.0000000000000000    2.7029723100256255
B Ir
1 1
direct
   0.3333333333333333    0.6666666666666666    0.5000000000000000 B
   0.0000000000000000    0.0000000000000000    0.0000000000000000 Ir
