KPOINTS automatic
0
Gamma
11 11 11
0 0 0
