&CONTROL
  calculation = 'vc-relax',
  etot_conv_thr = 1d-05,
  forc_conv_thr = 0.0001,
  nstep = 300,
  outdir = './',
  prefix = 'B1',
  pseudo_dir = '../../pp/',
  restart_mode = 'from_scratch',
  tprnfor = '.true.',
  tstress = '.true.',
/
&SYSTEM
  degauss = 0.02,
  ecutrho = 280,
  ecutwfc = 35,
  occupations = 'smearing',
  smearing = 'gauss',
  ibrav = 0,
  nat = 1,
  ntyp = 1,
/
&ELECTRONS
  conv_thr = 1d-16,
  diagonalization = 'david',
  electron_maxstep = 300,
  mixing_beta = 0.7,
  mixing_mode = 'plain',
/
&IONS
  ion_dynamics = 'bfgs',
/
&CELL
  cell_dynamics = 'bfgs',
  press_conv_thr = 0.05,
/
ATOMIC_SPECIES
  B  10.8110 B.upf
ATOMIC_POSITIONS crystal
  B -0.000000 0.000000 0.000000
K_POINTS automatic
  8 16 16 0 0 0
CELL_PARAMETERS angstrom
  -0.000000 -0.000000 3.635423
  1.702434 0.000000 -0.000000
  -0.851217 1.474350 0.000000