B12
1.0
   4.1319359320435378    3.7566058610184943    0.0000000000000000
   4.1319359320435378   -3.7566058610184943    0.0000000000000000
   0.0000000000000000   -2.2334525538741890   -3.9047021369438490
B
12
direct
   0.7946390000000001    0.2053609999999999    0.7403470000000000 B
   0.0017480000000003    0.2445350000000000    0.4681830000000000 B
   0.7554649999999999    0.9982519999999998    0.4681830000000000 B
   0.2053610000000000    0.7946390000000000    0.2596530000000000 B
   0.9982519999999998    0.7554649999999999    0.5318170000000001 B
   0.2445350000000002    0.0017480000000002    0.5318170000000001 B
   0.9119999999999999    0.0880000000000001    0.1798930000000001 B
   0.5183760000000002    0.1183200000000001    0.5677110000000001 B
   0.8816799999999999    0.4816239999999999    0.5677110000000001 B
   0.0880000000000001    0.9119999999999999    0.8201069999999999 B
   0.4816240000000000    0.8816799999999999    0.4322890000000001 B
   0.1183200000000002    0.5183760000000001    0.4322890000000001 B
