KPOINTS automatic
0
Gamma
14 14 20
0 0 0
