Cr4 B4
1.0
  -1.4502408969847600    1.4502408969847600    7.8015185116329420
   1.4502408969847600   -1.4502408969847600    7.8015185116329420
   1.4502408969847600    1.4502408969847600   -7.8015185116329420
Cr B
4 4
direct
   0.1975666899999999    0.1975666899999999    0.0000000000000000 Cr
   0.9475666899999999    0.4475666899999999    0.5000000000000000 Cr
   0.5524333100000001    0.0524333100000000    0.5000000000000000 Cr
   0.8024333100000001    0.8024333100000001    0.0000000000000000 Cr
   0.3422721700000000    0.3422721700000000    0.0000000000000000 B
   0.0922721699999998    0.5922721699999998    0.5000000000000000 B
   0.4077278300000002    0.9077278300000001    0.5000000000000000 B
   0.6577278300000000    0.6577278300000000    0.0000000000000000 B
