Ni4 B2
1.0
  -2.4634610768725915    2.4634610768725915    2.1065220639442632
   2.4634610768725915   -2.4634610768725915    2.1065220639442632
   2.4634610768725915    2.4634610768725915   -2.1065220639442628
Ni B
4 2
direct
   0.6688674899999999    0.8311325099999999    0.5000000000000000 Ni
   0.8311325100000000    0.3311325099999999    0.1622650200000000 Ni
   0.3311325099999998    0.1688674899999998    0.5000000000000000 Ni
   0.1688674900000000    0.6688674900000000    0.8377349800000000 Ni
   0.7499999999999999    0.7499999999999999    0.0000000000000000 B
   0.2500000000000000    0.2500000000000000    0.0000000000000000 B
