Mg2 B6
1.0
   4.1150130000000003    0.0000000000000000    0.0000000000000003
  -0.0000000000000003    4.1150130000000003    0.0000000000000003
   0.0000000000000000    0.0000000000000000    6.3660569999999996
Mg B
2 6
direct
   0.5000000000000000    0.5000000000000000    0.7234600000000000 Mg
   0.5000000000000000    0.5000000000000000    0.2765400000000000 Mg
   0.0000000000000000    0.3009430000000000    0.0000000000000000 B
   0.0000000000000000    0.6990570000000000    0.0000000000000000 B
   0.6990570000000000    0.0000000000000000    0.0000000000000000 B
   0.3009430000000000    0.0000000000000000    0.0000000000000000 B
   0.0000000000000000    0.0000000000000000    0.8100920000000000 B
   0.0000000000000000    0.0000000000000000    0.1899080000000000 B
