Mg4 B2
1.0
  -2.9499950418265111    2.9499950418265111    2.6180171975728590
   2.9499950418265111   -2.9499950418265111    2.6180171975728590
   2.9499950418265111    2.9499950418265111   -2.6180171975728586
Mg B
4 2
direct
   0.1824316499999999    0.3175683500000000    0.5000000000000000 Mg
   0.8175683499999999    0.6824316499999999    0.4999999999999999 Mg
   0.6824316499999999    0.1824316499999999    0.8648633000000000 Mg
   0.3175683499999997    0.8175683499999999    0.1351366999999999 Mg
   0.2500000000000000    0.2500000000000000    0.0000000000000000 B
   0.7500000000000000    0.7500000000000000    0.0000000000000000 B
