Mg3
1.0
   7.7545902044784540   -1.5926943150000010    0.0000000000000000
   7.7545902044784540    1.5926943150000010    0.0000000000000000
   7.4274710254961365    0.0000000000000000    2.7391638479364269
Mg
3
direct
   0.2219355900000000    0.2219355900000002    0.2219355900000001 Mg
   0.7780644099999999    0.7780644099999999    0.7780644099999999 Mg
   0.0000000000000000    0.0000000000000000    0.0000000000000000 Mg
