Mg6 B7
1.0
   7.5128703681531990   -2.5671818136732312    0.0000000000000000
   7.5128703681531990    2.5671818136732312    0.0000000000000000
   6.6356527214344228    0.0000000000000000    4.3591004339942554
Mg B
6 7
direct
   0.0645569900000000    0.0645569900000000    0.0645569900000000 Mg
   0.9354430100000001    0.9354430100000001    0.9354430100000000 Mg
   0.1920105400000000    0.1920105400000000    0.1920105400000000 Mg
   0.8079894599999999    0.8079894599999999    0.8079894599999999 Mg
   0.3182753000000001    0.3182753000000001    0.3182753000000001 Mg
   0.6817246999999999    0.6817246999999999    0.6817246999999997 Mg
   0.2056822799999999    0.5353876700000000    0.5353876700000000 B
   0.5353876700000001    0.2056822799999998    0.5353876699999998 B
   0.5353876700000000    0.5353876700000000    0.2056822799999997 B
   0.7943177200000000    0.4646123299999999    0.4646123299999998 B
   0.4646123300000000    0.4646123299999999    0.7943177200000000 B
   0.4646123300000000    0.7943177199999999    0.4646123299999997 B
   0.4999999999999999    0.4999999999999998    0.5000000000000000 B
