B6 Ru4
1.0
   1.4549968739727066   -2.5201285105746183    0.0000000000000000
   1.4549968739727066    2.5201285105746183    0.0000000000000000
   0.0000000000000000    0.0000000000000000   12.7809262199999996
B Ru
6 4
direct
   0.6666666666666666    0.3333333333333333    0.2500000000000000 B
   0.3333333333333334    0.6666666666666667    0.7500000000000000 B
   0.3333333333333333    0.6666666666666666    0.5305600700000001 B
   0.6666666666666667    0.3333333333333333    0.0305600699999999 B
   0.3333333333333333    0.6666666666666667    0.9694399299999999 B
   0.6666666666666667    0.3333333333333334    0.4694399299999999 B
   0.3333333333333333    0.6666666666666666    0.3600649099999999 Ru
   0.6666666666666667    0.3333333333333333    0.8600649100000000 Ru
   0.6666666666666667    0.3333333333333334    0.6399350900000000 Ru
   0.3333333333333333    0.6666666666666667    0.1399350900000001 Ru
