B8Mg4
1.0
   5.3192467157041197    0.0000000000000000    0.0000000000000000
   0.0000000000000000    3.5291222337291774    0.0000000000000000
   0.0000000000000000    0.0000000000000000    6.1421370463956118
Mg B
4 8
direct
   0.7500000000000000    0.0000000000000000    0.3750000000000000 Mg,spin=-1.0
   0.2500000000000000    0.0000000000000000    0.6250000000000000 Mg,spin=-1.0
   0.2500000000000000    0.0000000000000000    0.1250000000000000 Mg,spin=1.0
   0.7500000000000000    0.0000000000000000    0.8750000000000000 Mg,spin=1.0
   0.9166666666666679    0.5000000000000000    0.6249999999999982 B
   0.4166666666666679    0.5000000000000000    0.3750000000000018 B
   0.9166666666666679    0.5000000000000000    0.1249999999999982 B
   0.4166666666666679    0.5000000000000000    0.8750000000000018 B
   0.0833333333333321    0.5000000000000000    0.3750000000000018 B
   0.5833333333333321    0.5000000000000000    0.1249999999999982 B
   0.0833333333333321    0.5000000000000000    0.8750000000000018 B
   0.5833333333333321    0.5000000000000000    0.6249999999999982 B
