B15
1.0
   4.3479880698829847   -2.9026438099999989    0.0000000000000000
   4.3479880698829847    2.9026438099999989    0.0000000000000000
   2.4102318128935174    0.0000000000000000    4.6390865428112145
B
15
direct
   0.1928170050000001    0.6990200000000003    0.1928170050000000 B
   0.8071829950000000    0.3009799999999998    0.8071829950000002 B
   0.6990200000000004    0.1928170049999999    0.1928170050000000 B
   0.3009799999999998    0.8071829950000003    0.8071829950000000 B
   0.1928170049999999    0.1928170050000000    0.6990200000000002 B
   0.8071829950000002    0.8071829950000001    0.3009799999999998 B
   0.9931360000000005    0.9931360000000004    0.6706110100000002 B
   0.0068640000000000    0.0068639999999998    0.3293889899999998 B
   0.9931360000000004    0.6706110100000002    0.9931360000000004 B
   0.0068640000000000    0.3293889900000000    0.0068639999999998 B
   0.6706110100000002    0.9931360000000004    0.9931360000000004 B
   0.3293889900000000    0.0068640000000000    0.0068639999999998 B
   0.3659330000000002    0.3659330000000002    0.3659330000000002 B
   0.6340670000000002    0.6340669999999999    0.6340669999999999 B
   0.5000000000000000    0.5000000000000000    0.5000000000000002 B
