Y1 B2
1.0
   1.6504187852915819   -2.8586091898911299    0.0000000000000000
   1.6504187852915819    2.8586091898911299    0.0000000000000000
   0.0000000000000000    0.0000000000000000    3.8624966199999999
Y B
1 2
direct
   0.0000000000000000    0.0000000000000000    0.0000000000000000 Y
   0.3333333333333333    0.6666666666666666    0.5000000000000000 B
   0.6666666666666667    0.3333333333333334    0.5000000000000000 B
