ISIF = 3
NSW = 200
EDIFF = 1E-06
EDIFFG = -0.01
NPAR = 2
NSIM = 2
ISMEAR = 0
SIGMA = 0.05
NELM = 300
IALGO = 38
ENCUT = 600
ENAUG = 800
PREC = Accurate
ISPIN = 1
LREAL = .False.
IBRION = 2
GGA = PE
LSCALAPACK = .FALSE.
LWAVE = .FALSE.
LCHARG = .TRUE.
PSTRESS = 400
