K1 B6
1.0
   4.2123899799999993    0.0000000000000000    0.0000000000000003
  -0.0000000000000003    4.2123899799999993    0.0000000000000003
   0.0000000000000000    0.0000000000000000    4.2123899799999993
K B
1 6
direct
   0.5000000000000000    0.5000000000000000    0.5000000000000000 K
   0.6989177900000002    0.0000000000000000    0.0000000000000000 B
   0.3010822099999998    0.0000000000000000    0.0000000000000000 B
   0.0000000000000000    0.0000000000000000    0.6989177900000002 B
   0.0000000000000000    0.0000000000000000    0.3010822099999998 B
   0.0000000000000000    0.3010822099999998    0.0000000000000000 B
   0.0000000000000000    0.6989177900000002    0.0000000000000000 B
