Ti3 B4
1.0
  -1.5176456750000000    1.6299117299999999    6.8626482300000369
   1.5176456750000000   -1.6299117299999999    6.8626482300000369
   1.5176456750000000    1.6299117299999999   -6.8626482300000369
Ti B
3 4
direct
   0.1854021399999999    0.6854021399999999    0.5000000000000000 Ti
   0.8145978600000001    0.3145978600000001    0.4999999999999999 Ti
   0.0000000000000000    0.0000000000000000    0.0000000000000000 Ti
   0.3682165049999999    0.8682165049999999    0.5000000000000000 B
   0.6317834950000001    0.1317834950000001    0.4999999999999999 B
   0.4356744949999998    0.4356744949999998    0.0000000000000000 B
   0.5643255050000002    0.5643255050000002    0.0000000000000000 B
