B4 Os2
1.0
   2.8839847900000000    0.0000000000000000    0.0000000000000002
  -0.0000000000000002    4.0775408600000000    0.0000000000000002
   0.0000000000000000    0.0000000000000000    4.6900300799999997
B Os
4 2
direct
   0.0000000000000000    0.3610378400000002    0.8056280000000000 B
   0.5000000000000000    0.6389621599999998    0.6943720000000000 B
   0.0000000000000000    0.3610378400000002    0.1943720000000000 B
   0.5000000000000000    0.6389621599999998    0.3056280000000000 B
   0.0000000000000000    0.8434033500000000    0.0000000000000000 Os
   0.5000000000000000    0.1565966500000000    0.5000000000000000 Os
