Mg1
1.0
  -1.7727644949999999    1.7727644949999999    1.7727644949999999
   1.7727644949999999   -1.7727644949999999    1.7727644949999999
   1.7727644949999999    1.7727644949999999   -1.7727644949999997
Mg
1
direct
   0.0000000000000000    0.0000000000000000    0.0000000000000000 Mg
