B50
1.0
   8.8494508199999995    0.0000000000000000    0.0000000000000005
  -0.0000000000000005    8.8494508199999995    0.0000000000000005
   0.0000000000000000    0.0000000000000000    4.9202646000000003
B
50
direct
   0.5000000000000000    0.5000000000000000    0.5000000000000000 B
   0.0000000000000000    0.0000000000000000    0.0000000000000000 B
   0.6287910100000000    0.6287910100000000    0.3925743900000001 B
   0.1287910100000000    0.8712089900000000    0.8925743900000001 B
   0.8712089900000000    0.1287910100000000    0.8925743900000001 B
   0.3712089900000000    0.3712089900000000    0.3925743900000001 B
   0.3712089900000000    0.6287910100000000    0.6074256099999999 B
   0.6287910100000000    0.3712089900000000    0.6074256099999999 B
   0.1287910100000000    0.1287910100000000    0.1074256099999999 B
   0.8712089900000000    0.8712089900000000    0.1074256099999999 B
   0.7457739900000000    0.7457739900000000    0.5742940200000000 B
   0.2457739900000000    0.7542260100000000    0.0742940200000000 B
   0.7542260100000000    0.2457739900000000    0.0742940200000000 B
   0.2542260100000000    0.2542260100000000    0.5742940200000000 B
   0.2542260100000000    0.7457739900000000    0.4257059800000000 B
   0.7457739900000000    0.2542260100000000    0.4257059800000000 B
   0.2457739900000000    0.2457739900000000    0.9257059800000000 B
   0.7542260100000000    0.7542260100000000    0.9257059800000000 B
   0.5859483100000000    0.8299709300000000    0.4056775900000000 B
   0.3299709300000000    0.9140516900000000    0.9056775900000000 B
   0.6700290700000000    0.0859483100000000    0.9056775900000000 B
   0.4140516900000000    0.1700290700000000    0.4056775900000000 B
   0.4140516900000000    0.8299709300000000    0.5943224100000000 B
   0.5859483100000000    0.1700290700000000    0.5943224100000000 B
   0.3299709300000000    0.0859483100000000    0.0943224100000000 B
   0.6700290700000000    0.9140516900000000    0.0943224100000000 B
   0.9140516900000000    0.6700290700000000    0.0943224100000000 B
   0.1700290700000000    0.5859483100000000    0.5943224100000000 B
   0.8299709300000000    0.4140516900000000    0.5943224100000000 B
   0.0859483100000000    0.3299709300000000    0.0943224100000000 B
   0.0859483100000000    0.6700290700000000    0.9056775900000000 B
   0.9140516900000000    0.3299709300000000    0.9056775900000000 B
   0.1700290700000000    0.4140516900000000    0.4056775900000000 B
   0.8299709300000000    0.5859483100000000    0.4056775900000000 B
   0.5826503199999999    0.7281798800000000    0.0877382000000000 B
   0.2281798799999999    0.9173496800000001    0.5877382000000000 B
   0.7718201200000000    0.0826503199999999    0.5877382000000000 B
   0.4173496800000001    0.2718201200000000    0.0877382000000000 B
   0.4173496800000001    0.7281798800000000    0.9122618000000000 B
   0.5826503199999999    0.2718201200000000    0.9122618000000000 B
   0.2281798799999999    0.0826503199999999    0.4122618000000000 B
   0.7718201200000000    0.9173496800000001    0.4122618000000000 B
   0.9173496800000001    0.7718201200000000    0.4122618000000000 B
   0.2718201200000000    0.5826503199999999    0.9122618000000000 B
   0.7281798800000000    0.4173496800000001    0.9122618000000000 B
   0.0826503199999999    0.2281798799999999    0.4122618000000000 B
   0.0826503199999999    0.7718201200000000    0.5877382000000000 B
   0.9173496800000001    0.2281798799999999    0.5877382000000000 B
   0.2718201200000000    0.4173496800000001    0.0877382000000000 B
   0.7281798800000000    0.5826503199999999    0.0877382000000000 B
