Mg3
1.0
   7.7545902044270232   -1.5926943142487795    0.0000000000000000
   7.7545902044270232    1.5926943142487795    0.0000000000000000
   7.4274710257511174    0.0000000000000000    2.7391638466626214
Mg
3
direct
   0.0000000000000000    0.0000000000000000    0.0000000000000000 Mg
   0.2219355900000000    0.2219355900000002    0.2219355900000000 Mg
   0.7780644100000002    0.7780644100000002    0.7780644100000002 Mg
