V6 B4
1.0
   5.7075039800000003    0.0000000000000000    0.0000000000000003
  -0.0000000000000003    5.7075039800000003    0.0000000000000003
   0.0000000000000000    0.0000000000000000    3.0104477599999999
V B
6 4
direct
   0.0000000000000000    0.0000000000000000    0.0000000000000000 V
   0.5000000000000000    0.5000000000000000    0.0000000000000000 V
   0.3216100599999999    0.8216100599999999    0.5000000000000000 V
   0.8216100599999999    0.6783899400000001    0.5000000000000000 V
   0.1783899400000001    0.3216100599999999    0.5000000000000000 V
   0.6783899400000001    0.1783899400000001    0.5000000000000000 V
   0.1105690100000000    0.6105690100000000    0.0000000000000000 B
   0.6105690100000000    0.8894309900000000    0.0000000000000000 B
   0.3894309900000000    0.1105690100000000    0.0000000000000000 B
   0.8894309900000000    0.3894309900000000    0.0000000000000000 B
