Mg15 B1
1.0
   3.1447091026157334   -5.4467959407547806    0.0000000000000000
   3.1447091026157334    5.4467959407547806    0.0000000000000000
   0.0000000000000000    0.0000000000000000   10.0522080000000003
Mg B
15 1
direct
   0.0000000000000000    0.0000000000000000    0.5000000000000000 Mg
   0.9945939999999998    0.4972969999999999    0.0000000000000000 Mg
   0.0027410000000001    0.5013705000000001    0.5000000000000000 Mg
   0.5027030000000001    0.4972969999999999    0.0000000000000000 Mg
   0.4986294999999999    0.5013705000000001    0.5000000000000000 Mg
   0.5027030000000001    0.0054060000000002    0.0000000000000000 Mg
   0.4986294999999999    0.9972589999999999    0.5000000000000000 Mg
   0.1618210000000000    0.3236420000000000    0.7622970000000000 Mg
   0.1618210000000000    0.3236420000000000    0.2377030000000000 Mg
   0.1618210000000000    0.8381790000000000    0.7622970000000000 Mg
   0.1618210000000000    0.8381790000000000    0.2377030000000000 Mg
   0.6763580000000000    0.8381790000000000    0.7622970000000000 Mg
   0.6763580000000000    0.8381790000000000    0.2377030000000000 Mg
   0.6666666666666666    0.3333333333333333    0.7489760000000000 Mg
   0.6666666666666667    0.3333333333333334    0.2510240000000000 Mg
   0.0000000000000000    0.0000000000000000    0.0000000000000000 B
