Hf1 B2
1.0
   1.5663395419336990   -2.7129796685333285    0.0000000000000000
   1.5663395419336990    2.7129796685333285    0.0000000000000000
   0.0000000000000000    0.0000000000000000    3.4792139899999999
Hf B
1 2
direct
   0.0000000000000000    0.0000000000000000    0.0000000000000000 Hf
   0.3333333333333333    0.6666666666666666    0.5000000000000000 B
   0.6666666666666667    0.3333333333333334    0.5000000000000000 B
