KPOINTS automatic
0
Gamma
18 18 18
0 0 0
