Mg1 B3
1.0
   2.2523727948366918   -3.6394460780124960    0.0000000000000000
   2.2523727948366918    3.6394460780124960    0.0000000000000000
  -3.6283445469481554    0.0000000000000000    2.2702129438254417
Mg B
1 3
direct
   0.0000000000000000    0.0000000000000000    0.0000000000000000 Mg
   0.4999999999999999    0.5000000000000001    0.0000000000000000 B
   0.4999999999999999    0.0000000000000002    0.5000000000000001 B
   0.0000000000000000    0.5000000000000000    0.5000000000000002 B
