Mg1 B2
1.0
   1.5374642407033270   -2.6629661797184681    0.0000000000000000
   1.5374642407033270    2.6629661797184681    0.0000000000000000
   0.0000000000000000    0.0000000000000000    3.5269824467397299
Mg B
1 2
direct
   0.0000000000000000    0.0000000000000000    0.0000000000000000 Mg
   0.6666666666666666    0.3333333333333333    0.5000000000000000 B
   0.3333333333333334    0.6666666666666667    0.5000000000000000 B
