V3 B4
1.0
  -1.4856726791488242    1.5144306762644459    6.5825228082436782
   1.4856726791488242   -1.5144306762644459    6.5825228082436782
   1.4856726791488242    1.5144306762644459   -6.5825228082436782
V B
3 4
direct
   0.0000000000000000    0.5000000000000000    0.5000000000000000 V
   0.1876935200000000    0.1876935200000000    0.0000000000000000 V
   0.8123064800000001    0.8123064800000001    0.0000000000000000 V
   0.6366387900000000    0.6366387900000000    0.0000000000000000 B
   0.3633612100000000    0.3633612100000000    0.0000000000000000 B
   0.5655452750000001    0.0655452750000000    0.4999999999999999 B
   0.4344547250000000    0.9344547250000000    0.5000000000000000 B
