B12
1.0
   4.4033387757232525   -2.4433372881023208    0.0000000000000000
   4.4033387757232525    2.4433372881023208    0.0000000000000000
   3.0475727519176816    0.0000000000000000    4.0089387372455629
B
12
direct
   0.2220000000000000    0.6310000000000002    0.2220000000000000 B
   0.6310000000000002    0.2220000000000002    0.2220000000000000 B
   0.2220000000000000    0.2220000000000002    0.6310000000000001 B
   0.9900000000000002    0.9900000000000002    0.3470000000000003 B
   0.3470000000000004    0.9900000000000002    0.9900000000000001 B
   0.9900000000000002    0.3470000000000004    0.9900000000000001 B
   0.0100000000000002    0.6529999999999998    0.0099999999999999 B
   0.6529999999999998    0.0100000000000000    0.0100000000000000 B
   0.0100000000000000    0.0100000000000000    0.6529999999999998 B
   0.7780000000000001    0.7780000000000002    0.3689999999999999 B
   0.3689999999999999    0.7780000000000002    0.7780000000000001 B
   0.7780000000000000    0.3690000000000000    0.7780000000000001 B
