Mg10
1.0
   3.2419898245938543    0.0000000000000000    0.0000000000000002
  -0.0000000000000003    5.1265079186618490    0.0000000000000003
   0.0000000000000000    0.0000000000000000   15.1043403922721158
Mg
10
direct
   0.5000000000000000    0.9862520000000000    0.1676854800000001 Mg
   0.0000000000000000    0.0137480000000000    0.3323145199999999 Mg
   0.0000000000000000    0.0137480000000000    0.6676854800000001 Mg
   0.5000000000000000    0.9862520000000000    0.8323145199999999 Mg
   0.0000000000000000    0.4881285300000000    0.8486267999999999 Mg
   0.5000000000000000    0.5118714700000000    0.6513732000000001 Mg
   0.5000000000000000    0.5118714700000000    0.3486267999999999 Mg
   0.5000000000000000    0.0156737800000000    0.5000000000000000 Mg
   0.0000000000000000    0.9843262200000000    0.0000000000000000 Mg
   0.0000000000000000    0.4881285300000000    0.1513732000000001 Mg
