Sr1 B6
1.0
   4.1902060499999987    0.0000000000000000    0.0000000000000003
  -0.0000000000000003    4.1902060499999987    0.0000000000000003
   0.0000000000000000    0.0000000000000000    4.1902060499999987
Sr B
1 6
direct
   0.0000000000000000    0.0000000000000000    0.0000000000000000 Sr
   0.2031388100000000    0.5000000000000000    0.5000000000000000 B
   0.5000000000000000    0.5000000000000000    0.7968611900000000 B
   0.5000000000000000    0.5000000000000000    0.2031388100000000 B
   0.5000000000000000    0.2031388100000000    0.5000000000000000 B
   0.5000000000000000    0.7968611900000000    0.5000000000000000 B
   0.7968611900000000    0.5000000000000000    0.5000000000000000 B
