Mg3 B1
1.0
   3.2841760000000000    0.0000000000000000    0.0000000000000002
  -0.0000000000000003    4.2905009999999999    0.0000000000000003
   0.0000000000000000    0.0000000000000000    4.9229239999999992
Mg B
3 1
direct
   0.0000000000000000    0.0000000000000000    0.7114780000000001 Mg
   0.0000000000000000    0.5000000000000000    0.3062880000000000 Mg
   0.5000000000000000    0.5000000000000000    0.8513260000000000 Mg
   0.5000000000000000    0.0000000000000000    0.1309080000000000 B
