B48
1.0
   8.5944836099999993    0.0000000000000000    0.0000000000000005
  -0.0000000000000005    8.5944836099999993    0.0000000000000005
   0.0000000000000000    0.0000000000000000    5.0064141600000003
B
48
direct
   0.2269702700000000    0.0829170600000000    0.0915073100000000 B
   0.5829170600000000    0.2730297300000000    0.5915073100000000 B
   0.7730297300000000    0.9170829400000000    0.0915073100000000 B
   0.4170829400000000    0.7269702700000000    0.5915073100000000 B
   0.7730297300000000    0.0829170600000000    0.9084926900000000 B
   0.4170829400000000    0.2730297300000000    0.4084926900000000 B
   0.2269702700000000    0.9170829400000000    0.9084926900000000 B
   0.5829170600000000    0.7269702700000000    0.4084926900000000 B
   0.2730297300000000    0.4170829400000000    0.4084926900000000 B
   0.9170829400000000    0.2269702700000000    0.9084926900000000 B
   0.7269702700000000    0.5829170600000000    0.4084926900000000 B
   0.0829170600000000    0.7730297300000000    0.9084926900000000 B
   0.7269702700000000    0.4170829400000000    0.5915073100000000 B
   0.0829170600000000    0.2269702700000000    0.0915073100000000 B
   0.2730297300000000    0.5829170600000000    0.5915073100000000 B
   0.9170829400000000    0.7730297300000000    0.0915073100000000 B
   0.3290192900000000    0.0833211400000000    0.4038770099999998 B
   0.5833211400000000    0.1709807100000000    0.9038770099999998 B
   0.6709807100000000    0.9166788600000000    0.4038770099999998 B
   0.4166788600000000    0.8290192900000000    0.9038770099999998 B
   0.6709807100000000    0.0833211400000000    0.5961229900000002 B
   0.4166788600000000    0.1709807100000000    0.0961229900000002 B
   0.3290192900000000    0.9166788600000000    0.5961229900000002 B
   0.5833211400000000    0.8290192900000000    0.0961229900000002 B
   0.1709807100000000    0.4166788600000000    0.0961229900000002 B
   0.9166788600000000    0.3290192900000000    0.5961229900000002 B
   0.8290192900000000    0.5833211400000000    0.0961229900000002 B
   0.0833211400000000    0.6709807100000000    0.5961229900000002 B
   0.8290192900000000    0.4166788600000000    0.9038770099999998 B
   0.0833211400000000    0.3290192900000000    0.4038770099999998 B
   0.1709807100000000    0.5833211400000000    0.9038770099999998 B
   0.9166788600000000    0.6709807100000000    0.4038770099999998 B
   0.1257450600000000    0.1257450600000000    0.3821555399999999 B
   0.6257450600000000    0.3742549400000000    0.8821555399999998 B
   0.8742549400000000    0.8742549400000000    0.3821555399999999 B
   0.3742549400000000    0.6257450600000000    0.8821555399999998 B
   0.8742549400000000    0.1257450600000000    0.6178444600000002 B
   0.3742549400000000    0.3742549400000000    0.1178444600000001 B
   0.1257450600000000    0.8742549400000000    0.6178444600000002 B
   0.6257450600000000    0.6257450600000000    0.1178444600000001 B
   0.2449146400000000    0.2449146400000000    0.5819903800000000 B
   0.7449146400000000    0.2550853600000000    0.0819903800000001 B
   0.7550853600000000    0.7550853600000000    0.5819903800000000 B
   0.2550853600000000    0.7449146400000000    0.0819903800000001 B
   0.7550853600000000    0.2449146400000000    0.4180096200000000 B
   0.2550853600000000    0.2550853600000000    0.9180096200000000 B
   0.2449146400000000    0.7550853600000000    0.4180096200000000 B
   0.7449146400000000    0.7449146400000000    0.9180096200000000 B
