Pr1 B6
1.0
   4.1408570600000001    0.0000000000000000    0.0000000000000003
  -0.0000000000000003    4.1408570600000001    0.0000000000000003
   0.0000000000000000    0.0000000000000000    4.1408570600000001
Pr B
1 6
direct
   0.0000000000000000    0.0000000000000000    0.0000000000000000 Pr
   0.7998858000000000    0.5000000000000000    0.5000000000000000 B
   0.2001142000000000    0.5000000000000000    0.5000000000000000 B
   0.5000000000000000    0.5000000000000000    0.7998858000000000 B
   0.5000000000000000    0.5000000000000000    0.2001142000000000 B
   0.5000000000000000    0.2001142000000000    0.5000000000000000 B
   0.5000000000000000    0.7998858000000000    0.5000000000000000 B
