V2 B2
1.0
   1.5173263416078897   -4.0068781298415921   -0.0000000000000002
   1.5173263416078893    4.0068781298415921    0.0000000000000003
   0.0000000000000000    0.0000000000000000    2.9595287199999998
V B
2 2
direct
   0.1478958099999999    0.8521041900000000    0.2500000000000000 V
   0.8521041899999999    0.1478958100000000    0.7500000000000000 V
   0.4373220700000000    0.5626779300000000    0.2500000000000000 B
   0.5626779300000000    0.4373220700000001    0.7499999999999999 B
