La1 B6
1.0
   4.1526084300000008    0.0000000000000000    0.0000000000000003
  -0.0000000000000003    4.1526084300000008    0.0000000000000003
   0.0000000000000000    0.0000000000000000    4.1526084300000008
La B
1 6
direct
   0.0000000000000000    0.0000000000000000    0.0000000000000000 La
   0.8001218199999998    0.5000000000000000    0.5000000000000000 B
   0.1998781800000002    0.5000000000000000    0.5000000000000000 B
   0.5000000000000000    0.5000000000000000    0.8001218199999998 B
   0.5000000000000000    0.5000000000000000    0.1998781800000002 B
   0.5000000000000000    0.1998781800000002    0.5000000000000000 B
   0.5000000000000000    0.8001218199999998    0.5000000000000000 B
