Sc1 B2
1.0
   1.5727052846259348   -2.7240054583041915    0.0000000000000000
   1.5727052846259348    2.7240054583041915    0.0000000000000000
   0.0000000000000000    0.0000000000000000    3.5353973399999998
Sc B
1 2
direct
   0.0000000000000000    0.0000000000000000    0.0000000000000000 Sc
   0.6666666666666666    0.3333333333333333    0.5000000000000000 B
   0.3333333333333334    0.6666666666666667    0.5000000000000000 B
