Mg3 B1
1.0
  -0.0000000000000002    3.2216562768318404    3.2216562768318404
   3.2216562768318404    0.0000000000000000    3.2216562768318404
   3.2216562768318404    3.2216562768318404    0.0000000000000004
Mg B
3 1
direct
   0.2500000000000000    0.2500000000000002    0.2499999999999998 Mg
   0.5000000000000002    0.5000000000000000    0.4999999999999999 Mg
   0.7500000000000000    0.7500000000000001    0.7499999999999999 Mg
   0.0000000000000000    0.0000000000000000    0.0000000000000000 B
