Re2 B4
1.0
   1.4533808950650191   -2.5173295530025439    0.0000000000000000
   1.4533808950650191    2.5173295530025439    0.0000000000000000
   0.0000000000000000    0.0000000000000000    7.4729128800000000
Re B
2 4
direct
   0.6666666666666666    0.3333333333333333    0.7500000000000000 Re
   0.3333333333333334    0.6666666666666667    0.2500000000000000 Re
   0.6666666666666666    0.3333333333333333    0.4522036700000001 B
   0.3333333333333333    0.6666666666666666    0.9522036700000001 B
   0.6666666666666667    0.3333333333333334    0.0477963299999999 B
   0.3333333333333334    0.6666666666666667    0.5477963299999999 B
