Mg1 B3
1.0
   3.2420759999999995    0.0000000000000000    0.0000000000000002
  -0.0000000000000002    3.2420759999999995    0.0000000000000002
   0.0000000000000000    0.0000000000000000    3.2420759999999995
Mg B
1 3
direct
   0.0000000000000000    0.0000000000000000    0.0000000000000000 Mg
   0.0000000000000000    0.5000000000000000    0.5000000000000000 B
   0.5000000000000000    0.0000000000000000    0.5000000000000000 B
   0.5000000000000000    0.5000000000000000    0.0000000000000000 B
