KPOINTS automatic
0
Gamma
15 15 12
0 0 0
