B50
1.0
   8.6057701299999998    0.0000000000000000    0.0000000000000005
  -0.0000000000000005    8.6057701299999998    0.0000000000000005
   0.0000000000000000    0.0000000000000000    5.0503067000000001
B
50
direct
   0.2280934600000000    0.0818657500000000    0.4081896100000002 B
   0.5818657500000000    0.2719065400000000    0.9081896100000002 B
   0.7719065400000000    0.9181342500000000    0.4081896100000002 B
   0.4181342500000000    0.7280934600000000    0.9081896100000002 B
   0.7719065400000000    0.0818657500000000    0.5918103899999998 B
   0.4181342500000000    0.2719065400000000    0.0918103899999998 B
   0.2280934600000000    0.9181342500000000    0.5918103899999998 B
   0.5818657500000000    0.7280934600000000    0.0918103899999998 B
   0.2719065400000000    0.4181342500000000    0.0918103899999998 B
   0.9181342500000000    0.2280934600000000    0.5918103899999998 B
   0.7280934600000000    0.5818657500000000    0.0918103899999998 B
   0.0818657500000000    0.7719065400000000    0.5918103899999998 B
   0.7280934600000000    0.4181342500000000    0.9081896100000002 B
   0.0818657500000000    0.2280934600000000    0.4081896100000002 B
   0.2719065400000000    0.5818657500000000    0.9081896100000002 B
   0.9181342500000000    0.7719065400000000    0.4081896100000002 B
   0.3281861400000000    0.0821019599999999    0.0956775900000001 B
   0.5821019599999999    0.1718138600000000    0.5956775900000001 B
   0.6718138600000001    0.9178980400000001    0.0956775900000001 B
   0.4178980400000001    0.8281861399999999    0.5956775900000001 B
   0.6718138600000001    0.0821019599999999    0.9043224099999999 B
   0.4178980400000001    0.1718138600000000    0.4043224099999999 B
   0.3281861400000000    0.9178980400000001    0.9043224099999999 B
   0.5821019599999999    0.8281861399999999    0.4043224099999999 B
   0.1718138600000000    0.4178980400000001    0.4043224099999999 B
   0.9178980400000001    0.3281861400000000    0.9043224099999999 B
   0.8281861399999999    0.5821019599999999    0.4043224099999999 B
   0.0821019599999999    0.6718138600000001    0.9043224099999999 B
   0.8281861399999999    0.4178980400000001    0.5956775900000001 B
   0.0821019599999999    0.3281861400000000    0.0956775900000001 B
   0.1718138600000000    0.5821019599999999    0.5956775900000001 B
   0.9178980400000001    0.6718138600000001    0.0956775900000001 B
   0.1304851599999999    0.1304851599999999    0.1192041800000000 B
   0.6304851599999999    0.3695148400000001    0.6192041800000001 B
   0.8695148400000001    0.8695148400000001    0.1192041800000000 B
   0.3695148400000001    0.6304851599999999    0.6192041800000001 B
   0.8695148400000001    0.1304851599999999    0.8807958199999999 B
   0.3695148400000001    0.3695148400000001    0.3807958200000000 B
   0.1304851599999999    0.8695148400000001    0.8807958199999999 B
   0.6304851599999999    0.6304851599999999    0.3807958200000000 B
   0.2456775300000000    0.2456775300000000    0.9151239700000001 B
   0.7456775300000000    0.2543224700000000    0.4151239700000002 B
   0.7543224700000000    0.7543224700000000    0.9151239700000001 B
   0.2543224700000000    0.7456775300000000    0.4151239700000002 B
   0.7543224700000000    0.2456775300000000    0.0848760299999999 B
   0.2543224700000000    0.2543224700000000    0.5848760299999999 B
   0.2456775300000000    0.7543224700000000    0.0848760299999999 B
   0.7456775300000000    0.7456775300000000    0.5848760299999999 B
   0.0000000000000000    0.0000000000000000    0.5000000000000000 B
   0.5000000000000000    0.5000000000000000    0.0000000000000000 B
