B1 Os1
1.0
   1.4441434827491375   -2.5013298855409745    0.0000000000000000
   1.4441434827491375    2.5013298855409745    0.0000000000000000
   0.0000000000000000    0.0000000000000000    2.8688406700000000
B Os
1 1
direct
   0.6666666666666666    0.3333333333333333    0.5000000000000000 B
   0.0000000000000000    0.0000000000000000    0.0000000000000000 Os
