KPOINTS automatic
0
Gamma
12 13 18
0 0 0
