Ta3 B4
1.0
  -1.5676160916778246    1.6463128567162286    7.0119842579561933
   1.5676160916778246   -1.6463128567162286    7.0119842579561933
   1.5676160916778246    1.6463128567162286   -7.0119842579561933
Ta B
3 4
direct
   0.1848799800000001    0.6848799800000001    0.5000000000000000 Ta
   0.8151200199999999    0.3151200199999999    0.4999999999999999 Ta
   0.0000000000000000    0.0000000000000000    0.0000000000000000 Ta
   0.4356175900000001    0.4356175900000001    0.0000000000000000 B
   0.5643824099999999    0.5643824099999999    0.0000000000000000 B
   0.3662873400000000    0.8662873400000000    0.5000000000000000 B
   0.6337126600000000    0.1337126600000000    0.4999999999999999 B
