Nb2 B2
1.0
   1.6561940647306892   -4.3905572086495601   -0.0000000000000002
   1.6561940647306888    4.3905572086495601    0.0000000000000004
   0.0000000000000000    0.0000000000000000    3.1753951599999999
Nb B
2 2
direct
   0.8546462399999999    0.1453537600000001    0.7500000000000001 Nb
   0.1453537600000001    0.8546462400000000    0.2500000000000000 Nb
   0.5579866349999999    0.4420133650000000    0.7500000000000000 B
   0.4420133650000001    0.5579866350000000    0.2500000000000000 B
