V4 B6
1.0
   1.5127626223541346   -9.1787309394387613   -0.0000000000000005
   1.5127626223541333    9.1787309394387613    0.0000000000000007
   0.0000000000000000    0.0000000000000000    2.9729110799999998
V B
4 6
direct
   0.7052227500000000    0.2947772500000000    0.2500000000000000 V
   0.2947772499999998    0.7052227500000001    0.7499999999999999 V
   0.4293278749999999    0.5706721250000001    0.2500000000000000 V
   0.5706721250000000    0.4293278750000001    0.7500000000000000 V
   0.8310713300000000    0.1689286700000000    0.2500000000000000 B
   0.1689286699999999    0.8310713300000000    0.7500000000000000 B
   0.1177004599999999    0.8822995400000000    0.2500000000000000 B
   0.8822995400000000    0.1177004600000001    0.7500000000000000 B
   0.9763557300000000    0.0236442700000000    0.7500000000000000 B
   0.0236442699999999    0.9763557300000001    0.2500000000000000 B
