Ta2 B2
1.0
   1.6407425058332965   -4.3470427797334796   -0.0000000000000002
   1.6407425058332961    4.3470427797334796    0.0000000000000004
   0.0000000000000000    0.0000000000000000    3.1570828299999998
Ta B
2 2
direct
   0.8544407399999998    0.1455592600000002    0.7499999999999999 Ta
   0.1455592600000000    0.8544407400000000    0.2500000000000000 Ta
   0.5598625349999997    0.4401374650000003    0.7500000000000000 B
   0.4401374650000001    0.5598625349999999    0.2500000000000000 B
