B28
1.0
   5.0316443900000003    0.0000000000000000    0.0000000000000003
  -0.0000000000000003    5.5996521399999999    0.0000000000000003
   0.0000000000000000    0.0000000000000000    6.9388463900000001
B
28
direct
   0.6531271600000000    0.9070999000000000    0.2918777100000000 B
   0.3468728400000000    0.0929001000000000    0.2918777100000000 B
   0.1531271599999999    0.5929001000000000    0.2081222900000000 B
   0.8468728400000000    0.4070999000000000    0.2081222900000000 B
   0.3468728400000000    0.0929001000000000    0.7081222899999999 B
   0.6531271600000000    0.9070999000000000    0.7081222899999999 B
   0.8468728400000000    0.4070999000000000    0.7918777100000001 B
   0.1531271599999999    0.5929001000000000    0.7918777100000001 B
   0.1479907600000000    0.7709632500000000    0.0000000000000000 B
   0.8520092400000000    0.2290367500000000    0.0000000000000000 B
   0.6479907600000000    0.7290367500000000    0.5000000000000000 B
   0.3520092400000000    0.2709632499999999    0.5000000000000000 B
   0.8358032500000000    0.9922856100000000    0.5000000000000000 B
   0.1641967500000000    0.0077143900000000    0.5000000000000000 B
   0.3358032500000001    0.5077143900000000    0.0000000000000000 B
   0.6641967500000000    0.4922856100000002    0.0000000000000000 B
   0.3393255500000000    0.7807524000000000    0.3746740300000000 B
   0.6606744500000000    0.2192476000000000    0.3746740300000000 B
   0.8393255500000000    0.7192476000000000    0.1253259700000000 B
   0.1606744500000000    0.2807523999999999    0.1253259700000000 B
   0.6606744500000000    0.2192476000000000    0.6253259700000000 B
   0.3393255500000000    0.7807524000000000    0.6253259700000000 B
   0.1606744500000000    0.2807523999999999    0.8746740300000000 B
   0.8393255500000000    0.7192476000000000    0.8746740300000000 B
   0.1699323800000000    0.5195258900000000    0.5000000000000000 B
   0.8300676200000000    0.4804741100000000    0.5000000000000000 B
   0.6699323800000000    0.9804741100000000    0.0000000000000000 B
   0.3300676200000000    0.0195258900000002    0.0000000000000000 B
