Dy1 B2
1.0
   1.6472720042077857   -2.8531588051736980    0.0000000000000000
   1.6472720042077857    2.8531588051736980    0.0000000000000000
   0.0000000000000000    0.0000000000000000    3.8597255399999999
Dy B
1 2
direct
   0.0000000000000000    0.0000000000000000    0.0000000000000000 Dy
   0.3333333333333333    0.6666666666666666    0.5000000000000000 B
   0.6666666666666667    0.3333333333333334    0.5000000000000000 B
