Nb6 B4
1.0
   6.2327874200000002    0.0000000000000000    0.0000000000000004
  -0.0000000000000004    6.2327874200000002    0.0000000000000004
   0.0000000000000000    0.0000000000000000    3.3114672800000000
Nb B
6 4
direct
   0.0000000000000000    0.0000000000000000    0.0000000000000000 Nb
   0.5000000000000000    0.5000000000000000    0.0000000000000000 Nb
   0.3217327100000000    0.8217327100000000    0.5000000000000000 Nb
   0.8217327100000000    0.6782672900000000    0.5000000000000000 Nb
   0.1782672900000000    0.3217327100000000    0.5000000000000000 Nb
   0.6782672900000000    0.1782672900000000    0.5000000000000000 Nb
   0.1051312200000000    0.6051312200000000    0.0000000000000000 B
   0.6051312200000000    0.8948687800000000    0.0000000000000000 B
   0.3948687800000000    0.1051312200000000    0.0000000000000000 B
   0.8948687800000000    0.3948687800000000    0.0000000000000000 B
