Nb1 B2
1.0
   1.5555469774302710   -2.6942863984694267    0.0000000000000000
   1.5555469774302710    2.6942863984694267    0.0000000000000000
   0.0000000000000000    0.0000000000000000    3.3452063100000000
Nb B
1 2
direct
   0.0000000000000000    0.0000000000000000    0.0000000000000000 Nb
   0.3333333333333333    0.6666666666666666    0.5000000000000000 B
   0.6666666666666667    0.3333333333333334    0.5000000000000000 B
