Ho1 B2
1.0
   1.6416275870504240   -2.8433823878780342    0.0000000000000000
   1.6416275870504240    2.8433823878780342    0.0000000000000000
   0.0000000000000000    0.0000000000000000    3.8249870100000001
Ho B
1 2
direct
   0.0000000000000000    0.0000000000000000    0.0000000000000000 Ho
   0.3333333333333333    0.6666666666666666    0.5000000000000000 B
   0.6666666666666667    0.3333333333333334    0.5000000000000000 B
