Mg15 B1
1.0
   3.1447091050000004   -5.4467959448844514    0.0000000000000000
   3.1447091050000004    5.4467959448844514    0.0000000000000000
   0.0000000000000000    0.0000000000000000   10.0522080000000003
Mg B
15 1
direct
   0.1618210000000000    0.3236420000000000    0.2377029999999998 Mg
   0.1618210000000000    0.8381790000000000    0.7622970000000002 Mg
   0.6763580000000000    0.8381790000000000    0.2377029999999998 Mg
   0.1618210000000000    0.3236420000000000    0.7622970000000002 Mg
   0.1618210000000000    0.8381790000000000    0.2377029999999998 Mg
   0.6763580000000000    0.8381790000000000    0.7622970000000002 Mg
   0.5027030000000000    0.0054060000000000    0.0000000000000000 Mg
   0.5027030000000000    0.4972970000000000    0.0000000000000000 Mg
   0.9945940000000000    0.4972970000000000    0.0000000000000000 Mg
   0.4986295000000000    0.5013704999999999    0.5000000000000000 Mg
   0.0027409999999999    0.5013704999999999    0.5000000000000000 Mg
   0.4986295000000001    0.9972590000000001    0.5000000000000000 Mg
   0.6666666666666666    0.3333333333333333    0.7489759999999999 Mg
   0.6666666666666667    0.3333333333333334    0.2510240000000001 Mg
   0.0000000000000000    0.0000000000000000    0.5000000000000000 Mg
   0.0000000000000000    0.0000000000000000    0.0000000000000000 B
