Ta6 B4
1.0
   6.1876881199999998    0.0000000000000000    0.0000000000000004
  -0.0000000000000004    6.1876881199999998    0.0000000000000004
   0.0000000000000000    0.0000000000000000    3.2905998099999998
Ta B
6 4
direct
   0.0000000000000000    0.0000000000000000    0.0000000000000000 Ta
   0.5000000000000000    0.5000000000000000    0.0000000000000000 Ta
   0.3226745100000000    0.8226745100000000    0.5000000000000000 Ta
   0.8226745100000000    0.6773254900000000    0.5000000000000000 Ta
   0.1773254900000000    0.3226745100000000    0.5000000000000000 Ta
   0.6773254900000000    0.1773254900000000    0.5000000000000000 Ta
   0.1081877600000000    0.6081877600000000    0.0000000000000000 B
   0.6081877600000000    0.8918122400000000    0.0000000000000000 B
   0.3918122400000000    0.1081877600000000    0.0000000000000000 B
   0.8918122400000000    0.3918122400000000    0.0000000000000000 B
