Ca1 B6
1.0
   4.1384418299999988    0.0000000000000000    0.0000000000000003
  -0.0000000000000003    4.1384418299999988    0.0000000000000003
   0.0000000000000000    0.0000000000000000    4.1384418299999988
Ca B
1 6
direct
   0.0000000000000000    0.0000000000000000    0.0000000000000000 Ca
   0.2016845100000000    0.5000000000000000    0.5000000000000000 B
   0.5000000000000000    0.5000000000000000    0.7983154900000000 B
   0.5000000000000000    0.5000000000000000    0.2016845100000000 B
   0.5000000000000000    0.2016845100000000    0.5000000000000000 B
   0.5000000000000000    0.7983154900000000    0.5000000000000000 B
   0.7983154900000000    0.5000000000000000    0.5000000000000000 B
