V1 B2
1.0
   1.4937733528450812   -2.5872913421201922    0.0000000000000000
   1.4937733528450812    2.5872913421201922    0.0000000000000000
   0.0000000000000000    0.0000000000000000    3.0177720099999998
V B
1 2
direct
   0.0000000000000000    0.0000000000000000    0.0000000000000000 V
   0.3333333333333333    0.6666666666666666    0.5000000000000000 B
   0.6666666666666667    0.3333333333333334    0.5000000000000000 B
