KPOINTS automatic
0
Gamma
10 10 14
0 0 0
