Mg2 B1
1.0
   4.1525720000000002    0.0000000000000000    0.0000000000000003
  -0.0000000000000003    4.1525720000000002    0.0000000000000003
   0.0000000000000000    0.0000000000000000    2.8134470000000000
Mg B
2 1
direct
   0.0000000000000000    0.5000000000000000    0.5000000000000000 Mg
   0.5000000000000000    0.0000000000000000    0.5000000000000000 Mg
   0.0000000000000000    0.0000000000000000    0.0000000000000000 B
