B40
1.0
   0.0000000000000000   11.8245880000000003    0.0000000000000000
   5.1983020000000000    0.0000000000000000    0.0000000000000000
   0.0000000000000000   -7.2122250000000010  -11.2067219999999974
B
40
direct
   0.6532380000000000    0.0211519999999999    0.8587650000000000 B
   0.3467620000000000    0.9788480000000001    0.1412350000000000 B
   0.6532380000000000    0.9788480000000001    0.3587650000000000 B
   0.3467620000000000    0.0211519999999999    0.6412350000000000 B
   0.5404730000000000    0.8301970000000000    0.8630310000000000 B
   0.4595270000000000    0.1698030000000000    0.1369690000000000 B
   0.5404730000000000    0.1698030000000000    0.3630310000000000 B
   0.4595270000000000    0.8301970000000000    0.6369690000000000 B
   0.5546440000000000    0.1297120000000000    0.8969230000000000 B
   0.4453560000000000    0.8702880000000000    0.1030770000000000 B
   0.5546440000000000    0.8702880000000000    0.3969230000000000 B
   0.4453560000000000    0.1297120000000000    0.6030770000000000 B
   0.4069090000000000    0.0292880000000000    0.7991000000000000 B
   0.5930910000000000    0.9707120000000000    0.2009000000000000 B
   0.4069090000000000    0.9707120000000000    0.2991000000000000 B
   0.5930910000000000    0.0292880000000000    0.7009000000000000 B
   0.4020750000000000    0.7699950000000000    0.7273950000000000 B
   0.5979250000000000    0.2300050000000000    0.2726050000000000 B
   0.4020750000000000    0.2300050000000000    0.2273950000000000 B
   0.5979250000000000    0.7699950000000000    0.7726050000000000 B
   0.1510800000000000    0.5206940000000000    0.7840750000000000 B
   0.8489200000000000    0.4793060000000000    0.2159250000000000 B
   0.1510800000000000    0.4793060000000000    0.2840750000000000 B
   0.8489200000000000    0.5206940000000000    0.7159250000000000 B
   0.0365600000000000    0.3285650000000000    0.6731840000000000 B
   0.9634400000000000    0.6714350000000000    0.3268160000000000 B
   0.0365600000000000    0.6714350000000000    0.1731840000000000 B
   0.9634400000000000    0.3285650000000000    0.8268160000000000 B
   0.0496770000000000    0.6270880000000000    0.6513820000000000 B
   0.9503230000000000    0.3729120000000000    0.3486180000000000 B
   0.0496770000000000    0.3729120000000000    0.1513820000000000 B
   0.9503230000000000    0.6270880000000000    0.8486180000000000 B
   0.9028820000000000    0.5274660000000000    0.6115640000000000 B
   0.0971180000000000    0.4725340000000000    0.3884360000000000 B
   0.9028820000000000    0.4725340000000000    0.1115640000000000 B
   0.0971180000000000    0.5274660000000000    0.8884360000000000 B
   0.0986159999999999    0.2690630000000001    0.8195840000000000 B
   0.9013840000000001    0.7309369999999999    0.1804160000000000 B
   0.0986159999999999    0.7309369999999999    0.3195840000000000 B
   0.9013840000000001    0.2690630000000001    0.6804160000000000 B
