KPOINTS automatic
0
Gamma
16 16 15
0 0 0
