Mg1
1.0
  -1.8359916300000003    1.8359916300000001    1.6794040200000000
   1.8359916300000003   -1.8359916300000001    1.6794040200000000
   1.8359916299999999    1.8359916300000001   -1.6794040199999998
Mg
1
direct
   0.0000000000000000    0.0000000000000000    0.0000000000000000 Mg
