Ta1 B2
1.0
   1.5471527856963982   -2.6797472318978848    0.0000000000000000
   1.5471527856963982    2.6797472318978848    0.0000000000000000
   0.0000000000000000    0.0000000000000000    3.3052112899999999
Ta B
1 2
direct
   0.0000000000000000    0.0000000000000000    0.0000000000000000 Ta
   0.6666666666666666    0.3333333333333333    0.5000000000000000 B
   0.3333333333333334    0.6666666666666667    0.5000000000000000 B
