Tc6 B2
1.0
   1.4550164300000001   -4.5959203400001112   -0.0000000000000002
   1.4550164299999997    4.5959203400001112    0.0000000000000004
   0.0000000000000000    0.0000000000000000    7.1986486999999997
Tc B
6 2
direct
   0.8648904200000000    0.1351095800000000    0.4393258200000000 Tc
   0.1351095799999999    0.8648904200000000    0.5606741800000000 Tc
   0.8648904200000000    0.1351095800000000    0.0606741800000000 Tc
   0.1351095799999999    0.8648904200000000    0.9393258200000000 Tc
   0.5751019450000001    0.4248980549999999    0.2500000000000000 Tc
   0.4248980549999999    0.5751019450000001    0.7500000000000000 Tc
   0.2566632599999999    0.7433367399999999    0.2500000000000000 B
   0.7433367399999999    0.2566632600000001    0.7500000000000000 B
