Mg2
1.0
   1.5860116431468165   -2.7470527473260855    0.0000000000000000
   1.5860116431468165    2.7470527473260855    0.0000000000000000
   0.0000000000000000    0.0000000000000000    5.1412049000000000
Mg
2
direct
   0.3333333333333333    0.6666666666666666    0.2500000000000000 Mg
   0.6666666666666667    0.3333333333333334    0.7500000000000000 Mg
