Mg3 B1
1.0
   2.9735480000000001    0.0000000000000000    0.0000000000000002
  -0.0000000000000002    2.9735480000000001    0.0000000000000002
   0.0000000000000000    0.0000000000000000    7.8589359999999999
Mg B
3 1
direct
   0.5000000000000000    0.5000000000000000    0.8183338600000000 Mg
   0.0000000000000000    0.0000000000000000    0.5000000000000000 Mg
   0.5000000000000000    0.5000000000000000    0.1816661400000000 Mg
   0.0000000000000000    0.0000000000000000    0.0000000000000000 B
