MAGMOM = 4*0.6 4*5.0
EDIFF = 1E-06
EDIFFG = -0.01
NPAR = 2
NSIM = 2
ISMEAR = 0
SIGMA = 0.05
NELM = 300
IALGO = 38
ENAUG = 800
PREC = Accurate
ISPIN = 1
LREAL = .False.
ISIF = 3
IBRION = 2
GGA = PE
LSCALAPACK = .FALSE.
LWAVE = .FALSE.
LCHARG = .FALSE.
ENCUT = 414.1982
