B4 Mo4
1.0
  -1.5581179572328825    1.5581179572328825    8.4946156066625509
   1.5581179572328825   -1.5581179572328825    8.4946156066625509
   1.5581179572328825    1.5581179572328825   -8.4946156066625509
B Mo
4 4
direct
   0.5947964000000000    0.0947964000000001    0.5000000000000000 B
   0.8447964000000000    0.8447964000000000    0.0000000000000000 B
   0.1552035999999999    0.1552035999999999    0.0000000000000000 B
   0.9052036000000000    0.4052035999999999    0.4999999999999999 B
   0.4469657800000000    0.9469657800000001    0.5000000000000000 Mo
   0.6969657800000000    0.6969657800000000    0.0000000000000000 Mo
   0.3030342200000000    0.3030342200000000    0.0000000000000000 Mo
   0.0530342200000000    0.5530342200000000    0.4999999999999999 Mo
