Mg2
1.0
   1.5954756764839428   -2.7634449339105140    0.0000000000000000
   1.5954756764839428    2.7634449339105140    0.0000000000000000
   0.0000000000000000    0.0000000000000000    5.1890970000000003
Mg
2
direct
   0.6666666666666666    0.3333333333333333    0.7500000000000000 Mg
   0.3333333333333334    0.6666666666666667    0.2500000000000000 Mg
