KPOINTS automatic
0
Gamma
16 16 14
0 0 0
