&CONTROL
  calculation = 'vc-relax',
  etot_conv_thr = 1d-05,
  outdir = './',
  prefix = 'Ag1B2',
  pseudo_dir = '../../pp/',
  restart_mode = 'from_scratch',
  tprnfor = .true.,
  tstress = .true.,
/
&SYSTEM
  degauss = 0.02,
  ecutwfc = 50,
  ecutrho = 400,
  occupations = 'smearing',
  smearing = 'gauss',
  ibrav = 0,
  nat = 3,
  ntyp = 2,
/
&ELECTRONS
  conv_thr = 1d-09,
  diagonalization = 'david',
  electron_maxstep = 300,
  mixing_beta = 0.7,
  mixing_mode = 'plain',
/
&IONS
  ion_dynamics = 'bfgs',
/
&CELL
  cell_dynamics = 'bfgs',
/
ATOMIC_SPECIES
B 10.81 B.upf
Ag 107.8682 Ag.upf
ATOMIC_POSITIONS crystal
Ag 0.0 0.0 0.0
B 0.33333333 0.66666667 0.5
B 0.6666666700000001 0.33333333 0.5
K_POINTS automatic
8 8 6 0 0 0
CELL_PARAMETERS angstrom
1.513401965 -2.6212890956545754 0.0
1.513401965 2.6212890956545754 0.0
0.0 0.0 4.063922
