B48
1.0
   7.2929250000000012    0.0000000000000000    0.0000000000000004
  -0.0000000000000004    7.2929250000000012    0.0000000000000004
   0.0000000000000000    0.0000000000000000    7.2929250000000012
B
48
direct
   0.0000000000000000    0.1407990000000000    0.3587040000000000 B
   0.0000000000000000    0.8592010000000000    0.6412960000000001 B
   0.0000000000000000    0.8592010000000000    0.3587040000000000 B
   0.0000000000000000    0.1407990000000000    0.6412960000000001 B
   0.3587040000000000    0.0000000000000000    0.1407990000000000 B
   0.6412960000000001    0.0000000000000000    0.8592010000000000 B
   0.3587040000000000    0.0000000000000000    0.8592010000000000 B
   0.6412960000000001    0.0000000000000000    0.1407990000000000 B
   0.1407990000000000    0.3587040000000000    0.0000000000000000 B
   0.8592010000000000    0.6412960000000001    0.0000000000000000 B
   0.8592010000000000    0.3587040000000000    0.0000000000000000 B
   0.1407990000000000    0.6412960000000001    0.0000000000000000 B
   0.0000000000000000    0.3064959999999999    0.1938400000000000 B
   0.0000000000000000    0.6935040000000001    0.8061600000000000 B
   0.0000000000000000    0.6935040000000001    0.1938400000000000 B
   0.0000000000000000    0.3064959999999999    0.8061600000000000 B
   0.1938400000000000    0.0000000000000000    0.3064959999999999 B
   0.8061600000000000    0.0000000000000000    0.6935040000000001 B
   0.1938400000000000    0.0000000000000000    0.6935040000000001 B
   0.8061600000000000    0.0000000000000000    0.3064959999999999 B
   0.3064959999999999    0.1938400000000000    0.0000000000000000 B
   0.6935040000000001    0.8061600000000000    0.0000000000000000 B
   0.6935040000000001    0.1938400000000000    0.0000000000000000 B
   0.3064959999999999    0.8061600000000000    0.0000000000000000 B
   0.1312280000000000    0.5000000000000000    0.2182590000000000 B
   0.8687720000000000    0.5000000000000000    0.7817410000000000 B
   0.8687720000000000    0.5000000000000000    0.2182590000000000 B
   0.1312280000000000    0.5000000000000000    0.7817410000000000 B
   0.2182590000000000    0.1312280000000000    0.5000000000000000 B
   0.7817410000000000    0.8687720000000000    0.5000000000000000 B
   0.2182590000000000    0.8687720000000000    0.5000000000000000 B
   0.7817410000000000    0.1312280000000000    0.5000000000000000 B
   0.5000000000000000    0.2182590000000000    0.1312280000000000 B
   0.5000000000000000    0.7817410000000000    0.8687720000000000 B
   0.5000000000000000    0.2182590000000000    0.8687720000000000 B
   0.5000000000000000    0.7817410000000000    0.1312280000000000 B
   0.3021449999999999    0.5000000000000000    0.3762200000000000 B
   0.6978550000000001    0.5000000000000000    0.6237800000000000 B
   0.6978550000000001    0.5000000000000000    0.3762200000000000 B
   0.3021449999999999    0.5000000000000000    0.6237800000000000 B
   0.3762200000000000    0.3021449999999999    0.5000000000000000 B
   0.6237800000000000    0.6978550000000001    0.5000000000000000 B
   0.3762200000000000    0.6978550000000001    0.5000000000000000 B
   0.6237800000000000    0.3021449999999999    0.5000000000000000 B
   0.5000000000000000    0.3762200000000000    0.3021449999999999 B
   0.5000000000000000    0.6237800000000000    0.6978550000000001 B
   0.5000000000000000    0.3762200000000000    0.6978550000000001 B
   0.5000000000000000    0.6237800000000000    0.3021449999999999 B
