B12
1.0
  -0.0000000000000002    3.6942829483342283    3.6942829483342288
   3.6942829483342283    0.0000000000000000    3.6942829483342288
   3.6942829483342279    3.6942829483342283    0.0000000000000005
B
12
direct
   0.4999999999999999    0.5000000000000000    0.8395707450000003 B
   0.8395707450000001    0.1604292550000000    0.5000000000000002 B
   0.4999999999999999    0.5000000000000000    0.1604292550000002 B
   0.1604292549999999    0.8395707450000001    0.5000000000000004 B
   0.8395707450000000    0.5000000000000000    0.5000000000000001 B
   0.4999999999999999    0.8395707450000001    0.1604292550000002 B
   0.1604292549999997    0.5000000000000000    0.5000000000000000 B
   0.4999999999999998    0.1604292549999999    0.8395707450000001 B
   0.5000000000000001    0.8395707450000000    0.5000000000000001 B
   0.1604292550000000    0.4999999999999998    0.8395707450000001 B
   0.5000000000000000    0.1604292549999999    0.5000000000000000 B
   0.8395707450000001    0.5000000000000000    0.1604292550000002 B
