Tb1 B2
1.0
   1.6527312062961081   -2.8626144205594586    0.0000000000000000
   1.6527312062961081    2.8626144205594586    0.0000000000000000
   0.0000000000000000    0.0000000000000000    3.8982296600000002
Tb B
1 2
direct
   0.0000000000000000    0.0000000000000000    0.0000000000000000 Tb
   0.3333333333333333    0.6666666666666666    0.5000000000000000 B
   0.6666666666666667    0.3333333333333334    0.5000000000000000 B
