Mg2
1.0
   1.5944873092872596   -2.7617330317093240    0.0000000000000000
   1.5944873092872596    2.7617330317093240    0.0000000000000000
   0.0000000000000000    0.0000000000000000    5.1968980000000000
Mg
2
direct
   0.3333333333333333    0.6666666666666666    0.7500000000000000 Mg
   0.6666666666666667    0.3333333333333334    0.2500000000000000 Mg
