Sm1 B6
1.0
   4.1121865200000007    0.0000000000000000    0.0000000000000003
  -0.0000000000000003    4.1121865200000007    0.0000000000000003
   0.0000000000000000    0.0000000000000000    4.1121865200000007
Sm B
1 6
direct
   0.0000000000000000    0.0000000000000000    0.0000000000000000 Sm
   0.1994443700000000    0.5000000000000000    0.5000000000000000 B
   0.5000000000000000    0.5000000000000000    0.8005556300000000 B
   0.5000000000000000    0.5000000000000000    0.1994443700000000 B
   0.5000000000000000    0.1994443700000000    0.5000000000000000 B
   0.5000000000000000    0.8005556300000000    0.5000000000000000 B
   0.8005556300000000    0.5000000000000000    0.5000000000000000 B
