EDIFF = 1E-06
EDIFFG = -0.01
NPAR = 2
NSIM = 2
ISMEAR = 0
SIGMA = 0.05
NELM = 300
NSW = 200
IALGO = 38
ENCUT = 600
ENAUG = 800
PREC = Accurate
ISPIN = 2
LREAL = .False.
ISIF = 3
IBRION = 2
GGA = PE
LSCALAPACK = .FALSE.
LWAVE = .FALSE.
LCHARG = .FALSE.
MAGMOM = 1.0 1.0 1.0 1.0 0 0
LORBIT = 11
