Mg4 B28
1.0
  -2.9792430565407026    4.0502841137623005    5.2189760999999999
   2.9792430565407026   -4.0502841137623005    5.2189760999999999
   2.9792430565407018    4.0502841137623005   -5.2189760999999999
Mg B
4 28
direct
   0.0000000000000002    0.5000000000000002    0.0000000000000000 Mg
   0.0000000000000004    0.0000000000000002    0.5000000000000000 Mg
   0.3851833100000002    0.2500000000000001    0.1351833100000002 Mg
   0.6148166900000002    0.7500000000000003    0.8648166899999998 Mg
   0.2433294200000002    0.3588773950000002    0.8844520250000003 B
   0.3772961700000004    0.6750860300000006    0.2084459700000005 B
   0.3772961700000006    0.1688502000000001    0.7022101399999998 B
   0.7586539000000004    0.0824971150000002    0.6761567850000002 B
   0.3581888000000003    0.8337612700000002    0.5244275300000001 B
   0.5994849400000003    0.7805460900000007    0.5075001500000005 B
   0.5994849400000004    0.0919847899999999    0.8189388499999996 B
   0.9063403300000000    0.5824971150000001    0.3238432150000000 B
   0.0255746300000004    0.1411226050000002    0.8844520250000003 B
   0.1906662600000003    0.6662387300000002    0.5244275300000001 B
   0.0333599400000004    0.3311498000000005    0.2084459700000005 B
   0.0333599400000004    0.8249139700000000    0.7022101399999998 B
   0.7730459400000004    0.2805460900000010    0.1810611500000003 B
   0.7730459400000002    0.5919847899999998    0.4924998499999996 B
   0.2269540600000002    0.4080152100000006    0.5075001500000005 B
   0.2269540600000003    0.7194539099999997    0.8189388499999996 B
   0.9666400600000004    0.1750860300000008    0.2977898600000002 B
   0.9666400600000001    0.6688502000000000    0.7915540299999997 B
   0.8093337400000000    0.3337612700000001    0.4755724700000000 B
   0.9744253700000003    0.8588773950000004    0.1155479749999999 B
   0.0936596700000003    0.4175028850000002    0.6761567850000002 B
   0.4005150600000003    0.9080152100000008    0.1810611500000003 B
   0.4005150600000000    0.2194539099999997    0.4924998499999995 B
   0.6418112000000000    0.1662387300000001    0.4755724700000000 B
   0.2413461000000001    0.9175028850000002    0.3238432150000000 B
   0.6227038300000003    0.8311498000000007    0.2977898600000002 B
   0.6227038300000001    0.3249139699999999    0.7915540299999997 B
   0.7566705800000002    0.6411226050000003    0.1155479749999999 B
