B2 Rh2
1.0
   1.6885351406030897   -2.9246286538900090    0.0000000000000000
   1.6885351406030897    2.9246286538900090    0.0000000000000000
   0.0000000000000000    0.0000000000000000    4.0956848600000004
B Rh
2 2
direct
   0.0000000000000000    0.0000000000000000    0.0000000000000000 B
   0.0000000000000000    0.0000000000000000    0.5000000000000000 B
   0.6666666666666666    0.3333333333333333    0.7500000000000000 Rh
   0.3333333333333334    0.6666666666666667    0.2500000000000000 Rh
