B4 Ru2
1.0
   2.8671782299999999    0.0000000000000000    0.0000000000000002
  -0.0000000000000002    4.0396381699999999    0.0000000000000002
   0.0000000000000000    0.0000000000000000    4.6516201099999996
B Ru
4 2
direct
   0.0000000000000000    0.3626770600000000    0.8044312700000000 B
   0.5000000000000000    0.6373229400000000    0.6955687300000000 B
   0.0000000000000000    0.3626770600000000    0.1955687300000000 B
   0.5000000000000000    0.6373229400000000    0.3044312700000000 B
   0.0000000000000000    0.8467122800000000    0.0000000000000000 Ru
   0.5000000000000000    0.1532877200000000    0.5000000000000000 Ru
