KPOINTS automatic
0
Gamma
12 12 11
0 0 0
