B16Mg8
1.0
   3.0710685231978059    0.0000000000000000    0.0000000000000000
   0.0000000000000000    5.3192467157041197    0.0000000000000000
   0.0000000000000000    0.0000000000000000   14.1164889349167098
Mg B
8 16
direct
   0.5000000000000000    0.5000000000000000    0.3750000000000000 Mg,spin=-1.0
   0.0000000000000000    0.0000000000000000    0.1250000000000000 Mg,spin=-1.0
   0.0000000000000000    0.0000000000000000    0.8750000000000000 Mg,spin=-1.0
   0.5000000000000000    0.5000000000000000    0.6250000000000000 Mg,spin=-1.0
   0.5000000000000000    0.5000000000000000    0.1249999999999999 Mg,spin=1.0
   0.0000000000000000    0.0000000000000000    0.3750000000000001 Mg,spin=1.0
   0.0000000000000000    0.0000000000000000    0.6249999999999999 Mg,spin=1.0
   0.5000000000000000    0.5000000000000000    0.8750000000000001 Mg,spin=1.0
   0.0000000000000000    0.6666666666666679    0.2499999999999999 B
   0.5000000000000000    0.1666666666666678    0.0000000000000000 B
   0.5000000000000000    0.1666666666666679    0.2500000000000001 B
   0.0000000000000000    0.6666666666666679    0.0000000000000000 B
   0.5000000000000000    0.8333333333333321    0.2500000000000001 B
   0.0000000000000000    0.3333333333333321    0.0000000000000000 B
   0.0000000000000000    0.3333333333333321    0.2499999999999999 B
   0.5000000000000000    0.8333333333333323    0.0000000000000000 B
   0.5000000000000000    0.1666666666666679    0.7500000000000000 B
   0.0000000000000000    0.6666666666666677    0.5000000000000000 B
   0.0000000000000000    0.6666666666666679    0.7500000000000000 B
   0.5000000000000000    0.1666666666666679    0.5000000000000000 B
   0.0000000000000000    0.3333333333333321    0.7500000000000000 B
   0.5000000000000000    0.8333333333333321    0.5000000000000000 B
   0.5000000000000000    0.8333333333333321    0.7500000000000000 B
   0.0000000000000000    0.3333333333333321    0.5000000000000000 B
