Co4 B4
1.0
   3.0472235200000002    0.0000000000000000    0.0000000000000002
  -0.0000000000000002    3.8877829400000001    0.0000000000000002
   0.0000000000000000    0.0000000000000000    5.1088514500000004
Co B
4 4
direct
   0.2500000000000000    0.3719089300000000    0.6768287500000000 Co
   0.7500000000000000    0.6280910700000000    0.3231712500000000 Co
   0.7500000000000000    0.8719089300000000    0.8231712500000000 Co
   0.2500000000000000    0.1280910700000000    0.1768287499999999 Co
   0.2500000000000000    0.8745487100000000    0.5320660900000000 B
   0.7500000000000000    0.1254512900000000    0.4679339100000000 B
   0.7500000000000000    0.3745487100000000    0.9679339100000000 B
   0.2500000000000000    0.6254512900000000    0.0320660900000000 B
