Ti4 B4
1.0
   3.0502532200000001    0.0000000000000000    0.0000000000000002
  -0.0000000000000003    4.5588690500000002    0.0000000000000003
   0.0000000000000000    0.0000000000000000    6.1063648600000002
Ti B
4 4
direct
   0.2500000000000000    0.3777845100000000    0.6775113699999998 Ti
   0.7500000000000000    0.6222154900000000    0.3224886300000002 Ti
   0.7500000000000000    0.8777845100000000    0.8224886300000002 Ti
   0.2500000000000000    0.1222154900000000    0.1775113699999999 Ti
   0.2500000000000000    0.9004140400000000    0.5300118799999999 B
   0.7500000000000000    0.0995859600000000    0.4699881200000001 B
   0.7500000000000000    0.4004140400000000    0.9699881200000001 B
   0.2500000000000000    0.5995859600000000    0.0300118800000000 B
