Mg2
1.0
   1.5950897644808464   -2.7627765147139001    0.0000000000000000
   1.5950897644808464    2.7627765147139001    0.0000000000000000
   0.0000000000000000    0.0000000000000000    5.1882270000000004
Mg
2
direct
   0.3333333333333333    0.6666666666666666    0.7500000000000000 Mg
   0.6666666666666667    0.3333333333333334    0.2500000000000000 Mg
