KPOINTS automatic
0
Gamma
14 14 10
0 0 0
