Er1 B2
1.0
   1.6351217014255348   -2.8321138634274940    0.0000000000000000
   1.6351217014255348    2.8321138634274940    0.0000000000000000
   0.0000000000000000    0.0000000000000000    3.7909662900000001
Er B
1 2
direct
   0.0000000000000000    0.0000000000000000    0.0000000000000000 Er
   0.3333333333333333    0.6666666666666666    0.5000000000000000 B
   0.6666666666666667    0.3333333333333334    0.5000000000000000 B
