Mg4 B28
1.0
  -2.9792430550000004    4.0502841150000002    5.2189760999999999
   2.9792430550000004   -4.0502841150000002    5.2189760999999999
   2.9792430549999995    4.0502841150000002   -5.2189760999999999
Mg B
4 28
direct
   0.3851833100000002    0.2500000000000000    0.1351833099999999 Mg
   0.6148166900000003    0.7500000000000002    0.8648166900000002 Mg
   0.0000000000000002    0.5000000000000000    0.0000000000000000 Mg
   0.0000000000000002    0.0000000000000000    0.5000000000000000 Mg
   0.4005150599999999    0.2194539099999998    0.4924998500000000 B
   0.5994849400000006    0.7805460900000003    0.5075001500000003 B
   0.7730459400000003    0.2805460900000005    0.1810611500000001 B
   0.2269540600000000    0.7194539099999998    0.8189388500000000 B
   0.5994849400000006    0.0919847900000001    0.8189388500000001 B
   0.4005150600000000    0.9080152100000000    0.1810611500000001 B
   0.2269540600000000    0.4080152100000000    0.5075001500000001 B
   0.7730459400000003    0.5919847900000001    0.4924998500000000 B
   0.6227038300000000    0.3249139700000000    0.7915540200000002 B
   0.3772961700000004    0.6750860300000003    0.2084459800000003 B
   0.9666400500000004    0.1750860300000003    0.2977898600000002 B
   0.0333599500000001    0.8249139700000001    0.7022101400000001 B
   0.3772961700000004    0.1688501900000003    0.7022101400000001 B
   0.6227038300000001    0.8311498100000000    0.2977898600000002 B
   0.0333599500000001    0.3311498100000001    0.2084459800000003 B
   0.9666400500000003    0.6688501900000003    0.7915540200000002 B
   0.7586539099999999    0.0824971200000000    0.6761567900000000 B
   0.2413460900000004    0.9175028800000001    0.3238432100000002 B
   0.0936596700000001    0.4175028800000000    0.6761567899999998 B
   0.9063403300000002    0.5824971200000000    0.3238432100000002 B
   0.0255746400000001    0.1411226100000003    0.8844520299999999 B
   0.9744253600000004    0.8588773900000000    0.1155479700000002 B
   0.2433294200000000    0.3588773900000002    0.8844520299999999 B
   0.7566705800000005    0.6411226100000001    0.1155479700000002 B
   0.6418112000000000    0.1662387299999999    0.4755724700000001 B
   0.3581888000000004    0.8337612700000002    0.5244275300000001 B
   0.8093337400000002    0.3337612700000002    0.4755724700000001 B
   0.1906662600000000    0.6662387300000000    0.5244275300000001 B
