Mg2 B4
1.0
   1.5402644307130189    4.3867521665446629    0.0000000000000000
   1.5402644307130189   -4.3867521665446629    0.0000000000000000
   0.0000000000000000   -0.1451835169641566   -5.0284585404791686
Mg B
2 4
direct
   0.6558041100000004    0.3441958899999996    0.2334271999999999 Mg
   0.3441958899999997    0.6558041100000003    0.7665728000000001 Mg
   0.6178187840000001    0.3821812159999999    0.7321652850000002 B
   0.3821812159999998    0.6178187840000001    0.2678347149999998 B
   0.9281261600000001    0.0718738399999999    0.3536465900000001 B
   0.0718738399999999    0.9281261600000000    0.6463534099999999 B
