B2 Pt4
1.0
   1.4641561510350052   -2.5359928438071195    0.0000000000000000
   1.4641561510350052    2.5359928438071195    0.0000000000000000
   0.0000000000000000    0.0000000000000000   10.3572158400000003
B Pt
2 4
direct
   0.6666666666666666    0.3333333333333333    0.7500000000000000 B
   0.3333333333333334    0.6666666666666667    0.2500000000000000 B
   0.6666666666666666    0.3333333333333333    0.3837942900000000 Pt
   0.3333333333333334    0.6666666666666667    0.6162057100000000 Pt
   0.3333333333333333    0.6666666666666666    0.8837942900000000 Pt
   0.6666666666666667    0.3333333333333334    0.1162057100000000 Pt
