KPOINTS automatic
0
Gamma
27 27 11
0 0 0
