B1
1.0
   0.8512167879132716   -1.4743507249213677    0.0000000000000000
   0.8512167879132716    1.4743507249213677    0.0000000000000000
   0.0000000000000000    0.0000000000000000    3.6354228499999999
B
1
direct
   0.0000000000000000    0.0000000000000000    0.0000000000000000 B
