use_ws_distance = .true.
num_bands = 144
num_wann = 20
num_iter = 500
iprint = 2
dis_froz_min = 11.22
dis_froz_max = 13.22
dis_win_min = 9.0
dis_win_max = 23.0
!! To plot the WFs
! restart = plot

wannier_plot = true
wannier_plot_supercell = 3
! wannier_plot_list = 1,5
!! To plot the WF interpolated bandstructure
bands_plot = true

begin projections
random
end projections

begin kpoint_path
G 0.00000 0.00000 0.0000 H 0.5 -0.5 0.5
H 0.5 -0.5 0.5 N 0.0 0.0 0.5
N 0.0 0.0 0.5 G 0.0 0.0 0.0
G 0.0 0.0 0.0 P 0.25 0.25 0.25
P 0.25 0.25 0.25 H 0.5 -0.5 0.5
P 0.25 0.25 0.25 N 0.0 0.0 0.5
end kpoint_path

begin atoms_frac
Y             0.5000000000        0.0000000000        0.6016801845
Y             0.1016801845        0.5000000000        0.0000000000
Y             0.3983198155        0.3983198155        0.3983198155
Y             0.0000000000        0.1016801845        0.5000000000
Y             0.8983198155        0.8983198155        0.8983198155
Y             0.0000000000        0.6016801845        0.5000000000
Y             0.6016801845        0.5000000000        0.0000000000
Y             0.5000000000        0.0000000000        0.1016801845
C             0.7935868874        0.2500000000        0.0435868874
C             0.9564131126        0.2500000000        0.2064131126
C             0.7500000000        0.2935868874        0.5435868874
C             0.2064131126        0.9564131126        0.2500000000
C             0.2500000000        0.2064131126        0.9564131126
C             0.2935868874        0.5435868874        0.7500000000
C             0.7064131126        0.7500000000        0.4564131126
C             0.0435868874        0.7935868874        0.2500000000
C             0.5435868874        0.7500000000        0.2935868874
C             0.7500000000        0.4564131126        0.7064131126
C             0.2500000000        0.0435868874        0.7935868874
C             0.4564131126        0.7064131126        0.7500000000
end atoms_frac

begin unit_cell_cart
Ang
  -4.135050728   4.135050728   4.135050728
   4.135050728  -4.135050728   4.135050728
   4.135050728   4.135050728  -4.135050728
end unit_cell_cart

mp_grid = 6 6 6
begin kpoints
  0.00000000  0.00000000  0.00000000
  0.00000000  0.00000000  0.16666667
  0.00000000  0.00000000  0.33333333
  0.00000000  0.00000000  0.50000000
  0.00000000  0.00000000  0.66666667
  0.00000000  0.00000000  0.83333333
  0.00000000  0.16666667  0.00000000
  0.00000000  0.16666667  0.16666667
  0.00000000  0.16666667  0.33333333
  0.00000000  0.16666667  0.50000000
  0.00000000  0.16666667  0.66666667
  0.00000000  0.16666667  0.83333333
  0.00000000  0.33333333  0.00000000
  0.00000000  0.33333333  0.16666667
  0.00000000  0.33333333  0.33333333
  0.00000000  0.33333333  0.50000000
  0.00000000  0.33333333  0.66666667
  0.00000000  0.33333333  0.83333333
  0.00000000  0.50000000  0.00000000
  0.00000000  0.50000000  0.16666667
  0.00000000  0.50000000  0.33333333
  0.00000000  0.50000000  0.50000000
  0.00000000  0.50000000  0.66666667
  0.00000000  0.50000000  0.83333333
  0.00000000  0.66666667  0.00000000
  0.00000000  0.66666667  0.16666667
  0.00000000  0.66666667  0.33333333
  0.00000000  0.66666667  0.50000000
  0.00000000  0.66666667  0.66666667
  0.00000000  0.66666667  0.83333333
  0.00000000  0.83333333  0.00000000
  0.00000000  0.83333333  0.16666667
  0.00000000  0.83333333  0.33333333
  0.00000000  0.83333333  0.50000000
  0.00000000  0.83333333  0.66666667
  0.00000000  0.83333333  0.83333333
  0.16666667  0.00000000  0.00000000
  0.16666667  0.00000000  0.16666667
  0.16666667  0.00000000  0.33333333
  0.16666667  0.00000000  0.50000000
  0.16666667  0.00000000  0.66666667
  0.16666667  0.00000000  0.83333333
  0.16666667  0.16666667  0.00000000
  0.16666667  0.16666667  0.16666667
  0.16666667  0.16666667  0.33333333
  0.16666667  0.16666667  0.50000000
  0.16666667  0.16666667  0.66666667
  0.16666667  0.16666667  0.83333333
  0.16666667  0.33333333  0.00000000
  0.16666667  0.33333333  0.16666667
  0.16666667  0.33333333  0.33333333
  0.16666667  0.33333333  0.50000000
  0.16666667  0.33333333  0.66666667
  0.16666667  0.33333333  0.83333333
  0.16666667  0.50000000  0.00000000
  0.16666667  0.50000000  0.16666667
  0.16666667  0.50000000  0.33333333
  0.16666667  0.50000000  0.50000000
  0.16666667  0.50000000  0.66666667
  0.16666667  0.50000000  0.83333333
  0.16666667  0.66666667  0.00000000
  0.16666667  0.66666667  0.16666667
  0.16666667  0.66666667  0.33333333
  0.16666667  0.66666667  0.50000000
  0.16666667  0.66666667  0.66666667
  0.16666667  0.66666667  0.83333333
  0.16666667  0.83333333  0.00000000
  0.16666667  0.83333333  0.16666667
  0.16666667  0.83333333  0.33333333
  0.16666667  0.83333333  0.50000000
  0.16666667  0.83333333  0.66666667
  0.16666667  0.83333333  0.83333333
  0.33333333  0.00000000  0.00000000
  0.33333333  0.00000000  0.16666667
  0.33333333  0.00000000  0.33333333
  0.33333333  0.00000000  0.50000000
  0.33333333  0.00000000  0.66666667
  0.33333333  0.00000000  0.83333333
  0.33333333  0.16666667  0.00000000
  0.33333333  0.16666667  0.16666667
  0.33333333  0.16666667  0.33333333
  0.33333333  0.16666667  0.50000000
  0.33333333  0.16666667  0.66666667
  0.33333333  0.16666667  0.83333333
  0.33333333  0.33333333  0.00000000
  0.33333333  0.33333333  0.16666667
  0.33333333  0.33333333  0.33333333
  0.33333333  0.33333333  0.50000000
  0.33333333  0.33333333  0.66666667
  0.33333333  0.33333333  0.83333333
  0.33333333  0.50000000  0.00000000
  0.33333333  0.50000000  0.16666667
  0.33333333  0.50000000  0.33333333
  0.33333333  0.50000000  0.50000000
  0.33333333  0.50000000  0.66666667
  0.33333333  0.50000000  0.83333333
  0.33333333  0.66666667  0.00000000
  0.33333333  0.66666667  0.16666667
  0.33333333  0.66666667  0.33333333
  0.33333333  0.66666667  0.50000000
  0.33333333  0.66666667  0.66666667
  0.33333333  0.66666667  0.83333333
  0.33333333  0.83333333  0.00000000
  0.33333333  0.83333333  0.16666667
  0.33333333  0.83333333  0.33333333
  0.33333333  0.83333333  0.50000000
  0.33333333  0.83333333  0.66666667
  0.33333333  0.83333333  0.83333333
  0.50000000  0.00000000  0.00000000
  0.50000000  0.00000000  0.16666667
  0.50000000  0.00000000  0.33333333
  0.50000000  0.00000000  0.50000000
  0.50000000  0.00000000  0.66666667
  0.50000000  0.00000000  0.83333333
  0.50000000  0.16666667  0.00000000
  0.50000000  0.16666667  0.16666667
  0.50000000  0.16666667  0.33333333
  0.50000000  0.16666667  0.50000000
  0.50000000  0.16666667  0.66666667
  0.50000000  0.16666667  0.83333333
  0.50000000  0.33333333  0.00000000
  0.50000000  0.33333333  0.16666667
  0.50000000  0.33333333  0.33333333
  0.50000000  0.33333333  0.50000000
  0.50000000  0.33333333  0.66666667
  0.50000000  0.33333333  0.83333333
  0.50000000  0.50000000  0.00000000
  0.50000000  0.50000000  0.16666667
  0.50000000  0.50000000  0.33333333
  0.50000000  0.50000000  0.50000000
  0.50000000  0.50000000  0.66666667
  0.50000000  0.50000000  0.83333333
  0.50000000  0.66666667  0.00000000
  0.50000000  0.66666667  0.16666667
  0.50000000  0.66666667  0.33333333
  0.50000000  0.66666667  0.50000000
  0.50000000  0.66666667  0.66666667
  0.50000000  0.66666667  0.83333333
  0.50000000  0.83333333  0.00000000
  0.50000000  0.83333333  0.16666667
  0.50000000  0.83333333  0.33333333
  0.50000000  0.83333333  0.50000000
  0.50000000  0.83333333  0.66666667
  0.50000000  0.83333333  0.83333333
  0.66666667  0.00000000  0.00000000
  0.66666667  0.00000000  0.16666667
  0.66666667  0.00000000  0.33333333
  0.66666667  0.00000000  0.50000000
  0.66666667  0.00000000  0.66666667
  0.66666667  0.00000000  0.83333333
  0.66666667  0.16666667  0.00000000
  0.66666667  0.16666667  0.16666667
  0.66666667  0.16666667  0.33333333
  0.66666667  0.16666667  0.50000000
  0.66666667  0.16666667  0.66666667
  0.66666667  0.16666667  0.83333333
  0.66666667  0.33333333  0.00000000
  0.66666667  0.33333333  0.16666667
  0.66666667  0.33333333  0.33333333
  0.66666667  0.33333333  0.50000000
  0.66666667  0.33333333  0.66666667
  0.66666667  0.33333333  0.83333333
  0.66666667  0.50000000  0.00000000
  0.66666667  0.50000000  0.16666667
  0.66666667  0.50000000  0.33333333
  0.66666667  0.50000000  0.50000000
  0.66666667  0.50000000  0.66666667
  0.66666667  0.50000000  0.83333333
  0.66666667  0.66666667  0.00000000
  0.66666667  0.66666667  0.16666667
  0.66666667  0.66666667  0.33333333
  0.66666667  0.66666667  0.50000000
  0.66666667  0.66666667  0.66666667
  0.66666667  0.66666667  0.83333333
  0.66666667  0.83333333  0.00000000
  0.66666667  0.83333333  0.16666667
  0.66666667  0.83333333  0.33333333
  0.66666667  0.83333333  0.50000000
  0.66666667  0.83333333  0.66666667
  0.66666667  0.83333333  0.83333333
  0.83333333  0.00000000  0.00000000
  0.83333333  0.00000000  0.16666667
  0.83333333  0.00000000  0.33333333
  0.83333333  0.00000000  0.50000000
  0.83333333  0.00000000  0.66666667
  0.83333333  0.00000000  0.83333333
  0.83333333  0.16666667  0.00000000
  0.83333333  0.16666667  0.16666667
  0.83333333  0.16666667  0.33333333
  0.83333333  0.16666667  0.50000000
  0.83333333  0.16666667  0.66666667
  0.83333333  0.16666667  0.83333333
  0.83333333  0.33333333  0.00000000
  0.83333333  0.33333333  0.16666667
  0.83333333  0.33333333  0.33333333
  0.83333333  0.33333333  0.50000000
  0.83333333  0.33333333  0.66666667
  0.83333333  0.33333333  0.83333333
  0.83333333  0.50000000  0.00000000
  0.83333333  0.50000000  0.16666667
  0.83333333  0.50000000  0.33333333
  0.83333333  0.50000000  0.50000000
  0.83333333  0.50000000  0.66666667
  0.83333333  0.50000000  0.83333333
  0.83333333  0.66666667  0.00000000
  0.83333333  0.66666667  0.16666667
  0.83333333  0.66666667  0.33333333
  0.83333333  0.66666667  0.50000000
  0.83333333  0.66666667  0.66666667
  0.83333333  0.66666667  0.83333333
  0.83333333  0.83333333  0.00000000
  0.83333333  0.83333333  0.16666667
  0.83333333  0.83333333  0.33333333
  0.83333333  0.83333333  0.50000000
  0.83333333  0.83333333  0.66666667
  0.83333333  0.83333333  0.83333333
end kpoints
