&CONTROL
    calculation = 'nscf'
    restart_mode = 'from_scratch'
    pseudo_dir = '../../pp/'
    outdir = './'
    prefix = 'C12Y8',
    tprnfor = .true.
    tstress = .true.
    forc_conv_thr = 1.0d-4
    etot_conv_thr = 1.0d-5
    lkpoint_dir = .false.
    disk_io = 'low'
 /
&SYSTEM
    ibrav = 0
    ntyp = 2
    nat  = 20
    nbnd = 96
    ecutwfc = 50
    ecutrho = 400
    spline_ps = .true.
    occupations = 'smearing'
    smearing = 'gaussian'
    degauss = .10
 /
&ELECTRONS
    conv_thr = 1.0d-09
!    diagonalization = 'david'
!    diagonalization = 'cg'
    mixing_mode = 'plain'
!    mixing_beta = 0.4 
 /
ATOMIC_SPECIES
 C 12.011 C.upf
 Y 88.906 Y.upf
K_POINTS crystal
64
  0.00000000  0.00000000  0.00000000  1.562500e-02
  0.00000000  0.00000000  0.25000000  1.562500e-02
  0.00000000  0.00000000  0.50000000  1.562500e-02
  0.00000000  0.00000000  0.75000000  1.562500e-02
  0.00000000  0.25000000  0.00000000  1.562500e-02
  0.00000000  0.25000000  0.25000000  1.562500e-02
  0.00000000  0.25000000  0.50000000  1.562500e-02
  0.00000000  0.25000000  0.75000000  1.562500e-02
  0.00000000  0.50000000  0.00000000  1.562500e-02
  0.00000000  0.50000000  0.25000000  1.562500e-02
  0.00000000  0.50000000  0.50000000  1.562500e-02
  0.00000000  0.50000000  0.75000000  1.562500e-02
  0.00000000  0.75000000  0.00000000  1.562500e-02
  0.00000000  0.75000000  0.25000000  1.562500e-02
  0.00000000  0.75000000  0.50000000  1.562500e-02
  0.00000000  0.75000000  0.75000000  1.562500e-02
  0.25000000  0.00000000  0.00000000  1.562500e-02
  0.25000000  0.00000000  0.25000000  1.562500e-02
  0.25000000  0.00000000  0.50000000  1.562500e-02
  0.25000000  0.00000000  0.75000000  1.562500e-02
  0.25000000  0.25000000  0.00000000  1.562500e-02
  0.25000000  0.25000000  0.25000000  1.562500e-02
  0.25000000  0.25000000  0.50000000  1.562500e-02
  0.25000000  0.25000000  0.75000000  1.562500e-02
  0.25000000  0.50000000  0.00000000  1.562500e-02
  0.25000000  0.50000000  0.25000000  1.562500e-02
  0.25000000  0.50000000  0.50000000  1.562500e-02
  0.25000000  0.50000000  0.75000000  1.562500e-02
  0.25000000  0.75000000  0.00000000  1.562500e-02
  0.25000000  0.75000000  0.25000000  1.562500e-02
  0.25000000  0.75000000  0.50000000  1.562500e-02
  0.25000000  0.75000000  0.75000000  1.562500e-02
  0.50000000  0.00000000  0.00000000  1.562500e-02
  0.50000000  0.00000000  0.25000000  1.562500e-02
  0.50000000  0.00000000  0.50000000  1.562500e-02
  0.50000000  0.00000000  0.75000000  1.562500e-02
  0.50000000  0.25000000  0.00000000  1.562500e-02
  0.50000000  0.25000000  0.25000000  1.562500e-02
  0.50000000  0.25000000  0.50000000  1.562500e-02
  0.50000000  0.25000000  0.75000000  1.562500e-02
  0.50000000  0.50000000  0.00000000  1.562500e-02
  0.50000000  0.50000000  0.25000000  1.562500e-02
  0.50000000  0.50000000  0.50000000  1.562500e-02
  0.50000000  0.50000000  0.75000000  1.562500e-02
  0.50000000  0.75000000  0.00000000  1.562500e-02
  0.50000000  0.75000000  0.25000000  1.562500e-02
  0.50000000  0.75000000  0.50000000  1.562500e-02
  0.50000000  0.75000000  0.75000000  1.562500e-02
  0.75000000  0.00000000  0.00000000  1.562500e-02
  0.75000000  0.00000000  0.25000000  1.562500e-02
  0.75000000  0.00000000  0.50000000  1.562500e-02
  0.75000000  0.00000000  0.75000000  1.562500e-02
  0.75000000  0.25000000  0.00000000  1.562500e-02
  0.75000000  0.25000000  0.25000000  1.562500e-02
  0.75000000  0.25000000  0.50000000  1.562500e-02
  0.75000000  0.25000000  0.75000000  1.562500e-02
  0.75000000  0.50000000  0.00000000  1.562500e-02
  0.75000000  0.50000000  0.25000000  1.562500e-02
  0.75000000  0.50000000  0.50000000  1.562500e-02
  0.75000000  0.50000000  0.75000000  1.562500e-02
  0.75000000  0.75000000  0.00000000  1.562500e-02
  0.75000000  0.75000000  0.25000000  1.562500e-02
  0.75000000  0.75000000  0.50000000  1.562500e-02
  0.75000000  0.75000000  0.75000000  1.562500e-02
CELL_PARAMETERS (angstrom)
  -4.135050728   4.135050728   4.135050728
   4.135050728  -4.135050728   4.135050728
   4.135050728   4.135050728  -4.135050728
ATOMIC_POSITIONS (crystal)
Y             0.5000000000        0.0000000000        0.6016801845
Y             0.1016801845        0.5000000000        0.0000000000
Y             0.3983198155        0.3983198155        0.3983198155
Y             0.0000000000        0.1016801845        0.5000000000
Y             0.8983198155        0.8983198155        0.8983198155
Y             0.0000000000        0.6016801845        0.5000000000
Y             0.6016801845        0.5000000000        0.0000000000
Y             0.5000000000        0.0000000000        0.1016801845
C             0.7935868874        0.2500000000        0.0435868874
C             0.9564131126        0.2500000000        0.2064131126
C             0.7500000000        0.2935868874        0.5435868874
C             0.2064131126        0.9564131126        0.2500000000
C             0.2500000000        0.2064131126        0.9564131126
C             0.2935868874        0.5435868874        0.7500000000
C             0.7064131126        0.7500000000        0.4564131126
C             0.0435868874        0.7935868874        0.2500000000
C             0.5435868874        0.7500000000        0.2935868874
C             0.7500000000        0.4564131126        0.7064131126
C             0.2500000000        0.0435868874        0.7935868874
C             0.4564131126        0.7064131126        0.7500000000
