&inputpp
outdir = './'
prefix = 'C12Y8'
seedname = 'ex1'
write_amn = .true.
write_mmn = .true.
write_unk = .true.
/
