Mg1
1.0
  -1.7727644967041318    1.7727644967041318    1.7727644967041318
   1.7727644967041318   -1.7727644967041318    1.7727644967041318
   1.7727644967041318    1.7727644967041318   -1.7727644967041316
Mg
1
direct
   0.0000000000000000    0.0000000000000000    0.0000000000000000 Mg
