B4Mg2
1.0
   3.0710685231978059    0.0000000000000000    0.0000000000000000
   0.0000000000000000    3.5291222337291774    0.0000000000000000
   0.0000000000000000    0.0000000000000000    5.3192467157041197
Mg B
2 4
direct
   0.5000000000000000    0.0000000000000000    0.5000000000000000 Mg,spin=-1.0
   0.0000000000000000    0.0000000000000000    0.0000000000000000 Mg,spin=1.0
   0.5000000000000000    0.5000000000000000    0.8333333333333321 B
   0.0000000000000000    0.5000000000000000    0.3333333333333321 B
   0.0000000000000000    0.5000000000000000    0.6666666666666679 B
   0.5000000000000000    0.5000000000000000    0.1666666666666679 B
