B12
1.0
   2.9243305019526167    0.0000000000000000    0.0000000000000000
  -1.3766687025129820    5.5921116455649313    0.0000000000000000
  -0.0262084502237823   -1.0768102270918494    5.7965602729681640
B
12
direct
   0.6532878800000004    0.6147294499999998    0.5996229400000002 B
   0.8673847699999999    0.0766951600000000    0.0116197000000000 B
   0.2871836499999997    0.9166679199999999    0.9831519600000000 B
   0.5216710799999994    0.3620809500000001    0.3889769699999999 B
   0.7159223900000000    0.8670543999999999    0.1902587600000000 B
   0.1656976600000000    0.6538722299999998    0.7528114200000000 B
   0.7277629900000000    0.8979064099999999    0.7400325700000001 B
   0.8397873199999991    0.9492606099999998    0.4741196799999998 B
   0.1608931799999998    0.6237289000000000    0.0451577300000000 B
   0.0280291699999998    0.3675553700000000    0.1577650100000000 B
   0.3981913499999993    0.0816985600000002    0.4505145899999999 B
   0.6271355899999994    0.5666050100000000    0.2219756899999999 B
