KPOINTS automatic
0
Gamma
12 13 17
0 0 0
