B15
1.0
   4.3479880695595847   -2.9026438085466939    0.0000000000000000
   4.3479880695595847    2.9026438085466939    0.0000000000000000
   2.4102318143663926    0.0000000000000000    4.6390865408335538
B
15
direct
   0.5000000000000000    0.5000000000000000    0.5000000000000002 B
   0.1928170000000000    0.6990200000000002    0.1928170000000000 B
   0.1928170000000000    0.1928170000000000    0.6990200000000002 B
   0.6990200000000002    0.1928170000000000    0.1928170000000000 B
   0.8071830000000000    0.3009799999999998    0.8071830000000003 B
   0.8071830000000000    0.8071830000000000    0.3009799999999999 B
   0.3009800000000001    0.8071830000000000    0.8071830000000001 B
   0.9931359999999999    0.6706110000000003    0.9931360000000000 B
   0.9931360000000000    0.9931360000000000    0.6706110000000003 B
   0.6706110000000002    0.9931360000000000    0.9931360000000000 B
   0.0068640000000000    0.3293890000000002    0.0068640000000004 B
   0.0068640000000002    0.0068640000000002    0.3293890000000000 B
   0.3293890000000002    0.0068640000000000    0.0068640000000003 B
   0.3659330000000000    0.3659330000000001    0.3659330000000001 B
   0.6340670000000002    0.6340670000000002    0.6340670000000002 B
