KPOINTS automatic
0
Gamma
12 12 13
0 0 0
