Nb4 B6
1.0
   1.6609296650000007   -9.7912462900000001   -0.0000000000000005
   1.6609296649999994    9.7912462900000001    0.0000000000000007
   0.0000000000000000    0.0000000000000000    3.1379558300000001
Nb B
4 6
direct
   0.5689200700000000    0.4310799300000001    0.7500000000000001 Nb
   0.4310799300000003    0.5689200699999999    0.2500000000000001 Nb
   0.2976211250000003    0.7023788750000000    0.7500000000000000 Nb
   0.7023788750000000    0.2976211250000000    0.2500000000000000 Nb
   0.9770918650000000    0.0229081350000000    0.7500000000000001 B
   0.0229081350000003    0.9770918649999999    0.2500000000000000 B
   0.8843427950000000    0.1156572050000000    0.7500000000000001 B
   0.1156572050000002    0.8843427950000000    0.2500000000000000 B
   0.1649260550000002    0.8350739449999999    0.7500000000000001 B
   0.8350739450000000    0.1649260550000000    0.2500000000000000 B
