Al1B2
1.0
   1.5355342615989029   -2.6596233578520594    0.0000000000000000
   1.5355342615989029    2.6596233578520594    0.0000000000000000
   0.0000000000000000    0.0000000000000000    3.5291222337291774
Al B
1 2
direct
   0.0000000000000000    0.0000000000000000    0.0000000000000000 Al
   0.3333333333333333    0.6666666666666666    0.5000000000000000 B
   0.6666666666666667    0.3333333333333334    0.5000000000000000 B
