B12
1.0
   4.4076991410579112   -2.4491963950000000    0.0000000000000000
   4.4076991410579112    2.4491963950000000    0.0000000000000000
   3.0467707316290280    0.0000000000000000    4.0179052761672169
B
12
direct
   0.7794344300000000    0.3683651699999999    0.7794344300000000 B
   0.2205655699999999    0.6316348300000005    0.2205655700000000 B
   0.3683651699999997    0.7794344300000002    0.7794344300000000 B
   0.6316348300000003    0.2205655700000000    0.2205655700000001 B
   0.7794344300000001    0.7794344300000002    0.3683651699999997 B
   0.2205655699999999    0.2205655700000000    0.6316348300000003 B
   0.0099700450000002    0.6542851200000002    0.0099700449999997 B
   0.9900299550000002    0.3457148800000003    0.9900299550000002 B
   0.6542851200000002    0.0099700450000000    0.0099700449999999 B
   0.3457148800000005    0.9900299550000002    0.9900299550000002 B
   0.0099700450000000    0.0099700450000000    0.6542851199999999 B
   0.9900299550000005    0.9900299550000002    0.3457148800000002 B
