B50
1.0
   8.6057701299999998    0.0000000000000000    0.0000000000000005
  -0.0000000000000005    8.6057701299999998    0.0000000000000005
   0.0000000000000000    0.0000000000000000    5.0503067000000001
B
50
direct
   0.1304851599999999    0.1304851599999999    0.1192041800000001 B
   0.9178980400000000    0.3281861400000000    0.9043224100000000 B
   0.7280934599999997    0.5818657500000000    0.0918103900000000 B
   0.4181342500000000    0.2719065400000003    0.0918103900000000 B
   0.9181342500000000    0.2280934599999997    0.5918103900000000 B
   0.2543224700000000    0.2543224700000000    0.5848760300000000 B
   0.7719065400000003    0.0818657500000000    0.5918103900000000 B
   0.2280934599999997    0.0818657500000000    0.4081896100000000 B
   0.6304851599999999    0.3695148400000001    0.6192041800000001 B
   0.0000000000000000    0.0000000000000000    0.5000000000000000 B
   0.3281861400000000    0.0821019600000000    0.0956775900000000 B
   0.9178980400000000    0.6718138600000000    0.0956775900000000 B
   0.2719065400000003    0.4181342500000000    0.0918103900000000 B
   0.8695148400000001    0.8695148400000001    0.1192041800000001 B
   0.8695148400000001    0.1304851599999999    0.8807958199999999 B
   0.3281861400000000    0.9178980400000000    0.9043224100000000 B
   0.1718138600000000    0.4178980399999999    0.4043224100000000 B
   0.7456775300000000    0.2543224700000000    0.4151239700000000 B
   0.5821019600000000    0.8281861400000000    0.4043224100000000 B
   0.0821019600000000    0.3281861400000000    0.0956775900000000 B
   0.2456775300000000    0.2456775300000000    0.9151239700000000 B
   0.0821019600000000    0.6718138600000000    0.9043224100000000 B
   0.2456775300000000    0.7543224700000000    0.0848760300000000 B
   0.2543224700000000    0.7456775300000000    0.4151239700000000 B
   0.7543224700000000    0.2456775300000000    0.0848760300000000 B
   0.2280934599999997    0.9181342500000000    0.5918103900000000 B
   0.3695148400000001    0.6304851599999999    0.6192041800000001 B
   0.7456775300000000    0.7456775300000000    0.5848760300000000 B
   0.9181342500000000    0.7719065400000003    0.4081896100000000 B
   0.1304851599999999    0.8695148400000001    0.8807958199999999 B
   0.1718138600000000    0.5821019600000000    0.5956775900000000 B
   0.4181342500000000    0.7280934599999997    0.9081896100000000 B
   0.5818657500000000    0.7280934599999997    0.0918103900000000 B
   0.5818657500000000    0.2719065400000003    0.9081896100000000 B
   0.7719065400000003    0.9181342500000000    0.4081896100000000 B
   0.8281861400000000    0.4178980399999999    0.5956775900000000 B
   0.7280934599999997    0.4181342500000000    0.9081896100000000 B
   0.4178980399999999    0.8281861400000000    0.5956775900000000 B
   0.8281861400000000    0.5821019600000000    0.4043224100000000 B
   0.6304851599999999    0.6304851599999999    0.3807958199999999 B
   0.6718138600000000    0.9178980400000000    0.0956775900000000 B
   0.2719065400000003    0.5818657500000000    0.9081896100000000 B
   0.0818657500000000    0.2280934599999997    0.4081896100000000 B
   0.4178980399999999    0.1718138600000000    0.4043224100000000 B
   0.5000000000000000    0.5000000000000000    0.0000000000000000 B
   0.5821019600000000    0.1718138600000000    0.5956775900000000 B
   0.7543224700000000    0.7543224700000000    0.9151239700000000 B
   0.3695148400000001    0.3695148400000001    0.3807958199999999 B
   0.6718138600000000    0.0821019600000000    0.9043224100000000 B
   0.0818657500000000    0.7719065400000003    0.5918103900000000 B
