Mg1
1.0
   1.5251498999999999   -2.6416371159585923    0.0000000000000000
   1.5251498999999999    2.6416371159585923    0.0000000000000000
   0.0000000000000000    0.0000000000000000    3.0448375699999999
Mg
1
direct
   0.0000000000000000    0.0000000000000000    0.0000000000000000 Mg
