ALGO = Fast
IBRION = 2
ISIF = 3
LASPH = True
LORBIT = 11
LREAL = Auto
LWAVE = False
MAGMOM = 1*-0.0
NELM = 100
NSW = 99
PREC = Accurate
SIGMA = 0.05
EDIFF = 0.00000001
EDIFFG = -0.005
NPAR = 2
NSIM = 2
ISPIN = 2
ISMEAR = 0
ENCUT = 520
