pymatgen with grid density = 1740 / number of atoms
0
Gamma
7 15 15
