B1
1.0
  -0.0000000000000000   -0.0000000000000000    3.6354228499999999
   1.7024337899999999    0.0000000000000000   -0.0000000000000000
  -0.8512173900000000    1.4743501299999999    0.0000000000000000
B
1
direct
  -0.0000000000000000    0.0000000000000000    0.0000000000000000 B
