Nb3 B4
1.0
  -1.5776228466312137    1.6583857050993183    7.0775743020335735
   1.5776228466312137   -1.6583857050993183    7.0775743020335735
   1.5776228466312137    1.6583857050993183   -7.0775743020335735
Nb B
3 4
direct
   0.1847636100000002    0.6847636100000001    0.5000000000000000 Nb
   0.8152363900000000    0.3152363900000000    0.5000000000000000 Nb
   0.0000000000000000    0.0000000000000000    0.0000000000000000 Nb
   0.4355742000000000    0.4355742000000000    0.0000000000000000 B
   0.5644258000000001    0.5644258000000000    0.0000000000000000 B
   0.3676572850000001    0.8676572849999999    0.5000000000000000 B
   0.6323427150000002    0.1323427150000001    0.5000000000000000 B
