B12
1.0
   4.1319359300000000    3.7566058600000001    0.0000000000000000
   4.1319359300000000   -3.7566058600000001    0.0000000000000000
   0.0000000000000000   -2.2334525511759624   -3.9047021329547817
B
12
direct
   0.7554650000000001    0.9982519999999999    0.4681830000000000 B
   0.2445349999999999    0.0017480000000001    0.5318170000000000 B
   0.9982519999999998    0.7554650000000001    0.5318170000000000 B
   0.0017480000000001    0.2445350000000000    0.4681830000000000 B
   0.4816240000000000    0.8816800000000000    0.4322890000000000 B
   0.5183759999999999    0.1183200000000000    0.5677110000000002 B
   0.8816799999999999    0.4816240000000001    0.5677110000000002 B
   0.1183200000000000    0.5183759999999999    0.4322890000000000 B
   0.9120000000000003    0.0879999999999997    0.1798930000000001 B
   0.0879999999999998    0.9120000000000001    0.8201070000000000 B
   0.7946390000000001    0.2053609999999999    0.7403470000000001 B
   0.2053609999999999    0.7946390000000001    0.2596529999999999 B
