Zr1 B2
1.0
   1.5837623307849589   -2.7431568240332553    0.0000000000000000
   1.5837623307849589    2.7431568240332553    0.0000000000000000
   0.0000000000000000    0.0000000000000000    3.5523880600000002
Zr B
1 2
direct
   0.0000000000000000    0.0000000000000000    0.0000000000000000 Zr
   0.3333333333333333    0.6666666666666666    0.5000000000000000 B
   0.6666666666666667    0.3333333333333334    0.5000000000000000 B
