B12
1.0
   2.9243304999999999    0.0000000000000000    0.0000000000000000
  -1.3766687032822147    5.5921116496998753    0.0000000000000000
  -0.0262084506825997   -1.0768102270210467    5.7965602729211456
B
12
direct
   0.0280291700000000    0.3675553699999999    0.1577650100000000 B
   0.1608931800000000    0.6237289000000000    0.0451577300000000 B
   0.1656976600000000    0.6538722300000001    0.7528114199999999 B
   0.2871836500000000    0.9166679199999999    0.9831519599999999 B
   0.3981913500000000    0.0816985600000000    0.4505145899999999 B
   0.5216710800000000    0.3620809499999999    0.3889769699999999 B
   0.6271355900000000    0.5666050099999999    0.2219756899999999 B
   0.6532878800000000    0.6147294499999999    0.5996229400000000 B
   0.7159223900000000    0.8670543999999999    0.1902587599999999 B
   0.7277629900000000    0.8979064099999999    0.7400325700000000 B
   0.8397873200000000    0.9492606099999998    0.4741196799999999 B
   0.8673847700000000    0.0766951600000000    0.0116197000000000 B
