Mg5 B1
1.0
  -0.0000000000000002    4.0229362462435940    4.0229362462435940
   4.0229362462435940    0.0000000000000000    4.0229362462435940
   4.0229362462435940    4.0229362462435940    0.0000000000000005
Mg B
5 1
direct
   0.7500000000000000    0.7500000000000000    0.7500000000000000 Mg
   0.3745794033333334    0.3745794033333334    0.3745794033333332 Mg
   0.8762617900000002    0.3745794033333334    0.3745794033333332 Mg
   0.3745794033333334    0.3745794033333332    0.8762617900000000 Mg
   0.3745794033333334    0.8762617900000002    0.3745794033333332 Mg
   0.0000000000000000    0.0000000000000000    0.0000000000000000 B
