B16Mg8
1.0
   7.0582444674583549    0.0000000000000000    0.0000000000000000
   0.0000000000000000   10.6384934314082393    0.0000000000000000
   0.0000000000000000    0.0000000000000000    3.0710685231978059
Mg B
8 16
direct
   0.0000000000000000    0.8750000000000000    0.7500000000000000 Mg,spin=-1.0
   0.0000000000000000    0.1250000000000000    0.2500000000000000 Mg,spin=-1.0
   0.5000000000000000    0.3750000000000000    0.7500000000000000 Mg,spin=-1.0
   0.5000000000000000    0.6250000000000000    0.2500000000000000 Mg,spin=-1.0
   0.0000000000000000    0.6250000000000000    0.2500000000000000 Mg,spin=1.0
   0.5000000000000000    0.8750000000000000    0.7500000000000000 Mg,spin=1.0
   0.5000000000000000    0.1250000000000000    0.2500000000000000 Mg,spin=1.0
   0.0000000000000000    0.3750000000000000    0.7500000000000000 Mg,spin=1.0
   0.2500000000000002    0.7083333333333339    0.7500000000000000 B
   0.7500000000000000    0.9583333333333339    0.2500000000000000 B
   0.2500000000000000    0.9583333333333339    0.2500000000000000 B
   0.7499999999999998    0.7083333333333339    0.7500000000000000 B
   0.2499999999999998    0.7916666666666661    0.2500000000000000 B
   0.7500000000000000    0.0416666666666661    0.7500000000000000 B
   0.2500000000000000    0.0416666666666661    0.7500000000000000 B
   0.7500000000000002    0.7916666666666661    0.2500000000000000 B
   0.7500000000000002    0.2083333333333339    0.7500000000000000 B
   0.2500000000000000    0.4583333333333339    0.2500000000000000 B
   0.7500000000000000    0.4583333333333339    0.2500000000000000 B
   0.2499999999999998    0.2083333333333339    0.7500000000000000 B
   0.7499999999999998    0.2916666666666661    0.2500000000000000 B
   0.2500000000000000    0.5416666666666661    0.7500000000000000 B
   0.7500000000000000    0.5416666666666661    0.7500000000000000 B
   0.2500000000000002    0.2916666666666661    0.2500000000000000 B
