B16Mg8
1.0
   8.8381672639148174    0.0000000000000000    0.0000000000000000
   0.0000000000000000    3.0710685231978059    0.0000000000000000
  -2.4353951104500018    0.0000000000000000    8.4960020739717201
Mg B
8 16
direct
   0.8749999999999999    0.5000000000000000    0.1250000000000000 Mg,spin=-1.0
   0.1250000000000001    0.5000000000000000    0.8750000000000000 Mg,spin=-1.0
   0.3750000000000000    0.0000000000000000    0.1250000000000000 Mg,spin=-1.0
   0.6250000000000001    0.0000000000000000    0.8750000000000000 Mg,spin=-1.0
   0.8750000000000000    0.0000000000000000    0.6250000000000000 Mg,spin=1.0
   0.1250000000000000    0.0000000000000000    0.3750000000000000 Mg,spin=1.0
   0.3750000000000000    0.5000000000000000    0.6250000000000000 Mg,spin=1.0
   0.6250000000000000    0.5000000000000000    0.3750000000000000 Mg,spin=1.0
   0.0833333333333337    0.0000000000000000    0.0833333333333339 B
   0.3333333333333339    0.0000000000000000    0.8333333333333339 B
   0.0833333333333339    0.5000000000000000    0.5833333333333339 B
   0.3333333333333339    0.5000000000000000    0.3333333333333339 B
   0.1666666666666661    0.5000000000000000    0.1666666666666661 B
   0.9166666666666663    0.0000000000000000    0.9166666666666661 B
   0.1666666666666661    0.0000000000000000    0.6666666666666661 B
   0.9166666666666661    0.5000000000000000    0.4166666666666661 B
   0.5833333333333337    0.5000000000000000    0.0833333333333339 B
   0.8333333333333339    0.5000000000000000    0.8333333333333339 B
   0.5833333333333339    0.0000000000000000    0.5833333333333339 B
   0.8333333333333339    0.0000000000000000    0.3333333333333339 B
   0.6666666666666661    0.0000000000000000    0.1666666666666661 B
   0.4166666666666663    0.5000000000000000    0.9166666666666661 B
   0.6666666666666661    0.5000000000000000    0.6666666666666661 B
   0.4166666666666661    0.0000000000000000    0.4166666666666661 B
