Tm1 B2
1.0
   1.6297310070209408   -2.8227769068306601    0.0000000000000000
   1.6297310070209408    2.8227769068306601    0.0000000000000000
   0.0000000000000000    0.0000000000000000    3.7582002900000000
Tm B
1 2
direct
   0.0000000000000000    0.0000000000000000    0.0000000000000000 Tm
   0.3333333333333333    0.6666666666666666    0.5000000000000000 B
   0.6666666666666667    0.3333333333333334    0.5000000000000000 B
