Mg4
1.0
   1.5884130828087684   -2.7512121628318971    0.0000000000000000
   1.5884130828087684    2.7512121628318971    0.0000000000000000
   0.0000000000000000    0.0000000000000000   10.3188620100000001
Mg
4
direct
   0.0000000000000000    0.0000000000000000    0.0000000000000000 Mg
   0.3333333333333333    0.6666666666666666    0.2500000000000000 Mg
   0.0000000000000000    0.0000000000000000    0.5000000000000000 Mg
   0.6666666666666667    0.3333333333333334    0.7500000000000000 Mg
