Mg5
1.0
   1.6209949100000005   -7.5521701950000004   -0.0000000000000004
   1.6209949099999996    7.5521701950000004    0.0000000000000006
   0.0000000000000000    0.0000000000000000    5.1265079199999999
Mg
5
direct
   0.8486268000000001    0.1513731999999999    0.5000000000000000 Mg
   0.1513732000000001    0.8486268000000000    0.5000000000000000 Mg
   0.6676854800000002    0.3323145199999999    1.0000000000000000 Mg
   0.3323145200000001    0.6676854800000001    1.0000000000000000 Mg
   0.0000000000000000    0.0000000000000000    0.0000000000000000 Mg
