Cr2 B8
1.0
   2.8456752900000000    0.0000000000000000    0.0000000000000002
  -0.0000000000000003    4.7063811900000001    0.0000000000000003
   0.0000000000000000    0.0000000000000000    5.4472066100000003
Cr B
2 8
direct
   0.5000000000000000    0.5000000000000000    0.5000000000000000 Cr
   0.0000000000000000    0.0000000000000000    0.0000000000000000 Cr
   0.5000000000000000    0.6633410700000000    0.8681706700000004 B
   0.5000000000000000    0.3366589300000000    0.1318293299999996 B
   0.0000000000000000    0.1633410700000000    0.6318293299999996 B
   0.0000000000000000    0.8366589300000000    0.3681706700000005 B
   0.5000000000000000    0.7252449100000000    0.1802498300000002 B
   0.5000000000000000    0.2747550900000000    0.8197501699999998 B
   0.0000000000000000    0.2252449100000000    0.3197501699999998 B
   0.0000000000000000    0.7747550900000000    0.6802498300000002 B
