KPOINTS automatic
0
Gamma
11 11 10
0 0 0
