B2 W4
1.0
  -2.7835842174799534    2.7835842174799534    2.3829394776316484
   2.7835842174799534   -2.7835842174799534    2.3829394776316484
   2.7835842174799534    2.7835842174799534   -2.3829394776316479
B W
2 4
direct
   0.2500000000000000    0.2500000000000000    0.0000000000000000 B
   0.7500000000000000    0.7500000000000000    0.0000000000000000 B
   0.8296931199999997    0.6703068799999998    0.4999999999999998 W
   0.3296931199999998    0.8296931199999998    0.1593862399999997 W
   0.1703068799999998    0.3296931199999997    0.5000000000000000 W
   0.6703068799999999    0.1703068800000000    0.8406137600000001 W
