Th1 B6
1.0
   4.1089835799999994    0.0000000000000000    0.0000000000000003
  -0.0000000000000003    4.1089835799999994    0.0000000000000003
   0.0000000000000000    0.0000000000000000    4.1089835799999994
Th B
1 6
direct
   0.0000000000000000    0.0000000000000000    0.0000000000000000 Th
   0.8023530600000002    0.5000000000000000    0.5000000000000000 B
   0.1976469399999998    0.5000000000000000    0.5000000000000000 B
   0.5000000000000000    0.5000000000000000    0.8023530600000002 B
   0.5000000000000000    0.5000000000000000    0.1976469399999998 B
   0.5000000000000000    0.1976469399999998    0.5000000000000000 B
   0.5000000000000000    0.8023530600000002    0.5000000000000000 B
