Mg7 B1
1.0
   3.0832559800000006   -5.3403560101005709    0.0000000000000000
   3.0832559800000006    5.3403560101005709    0.0000000000000000
   0.0000000000000000    0.0000000000000000    4.8840000000000003
Mg B
7 1
direct
   0.5005360000000001    0.0010720000000001    0.0000000000000000 Mg
   0.5005360000000000    0.4994639999999999    0.0000000000000000 Mg
   0.9989279999999999    0.4994640000000000    0.0000000000000000 Mg
   0.1596725000000000    0.3193450000000000    0.5000000000000000 Mg
   0.1596725000000000    0.8403275000000000    0.5000000000000000 Mg
   0.6806550000000000    0.8403275000000000    0.5000000000000000 Mg
   0.6666666666666666    0.3333333333333333    0.5000000000000000 Mg
   0.0000000000000000    0.0000000000000000    0.0000000000000000 B
