B12
1.0
  -0.0000000000000002    3.6942829499999998    3.6942829500000003
   3.6942829499999998    0.0000000000000000    3.6942829500000003
   3.6942829499999994    3.6942829499999998    0.0000000000000005
B
12
direct
   0.5000000000000000    0.1604292600000000    0.8395707400000000 B
   0.5000000000000000    0.8395707400000001    0.1604292600000000 B
   0.4999999999999999    0.1604292599999999    0.4999999999999999 B
   0.5000000000000000    0.8395707400000000    0.4999999999999999 B
   0.1604292599999999    0.5000000000000000    0.5000000000000001 B
   0.8395707400000000    0.5000000000000000    0.4999999999999999 B
   0.1604292600000000    0.5000000000000000    0.8395707399999999 B
   0.8395707400000001    0.4999999999999999    0.1604292600000000 B
   0.4999999999999999    0.5000000000000000    0.1604292600000001 B
   0.4999999999999999    0.5000000000000000    0.8395707400000001 B
   0.8395707400000000    0.1604292600000000    0.5000000000000001 B
   0.1604292599999999    0.8395707400000000    0.5000000000000001 B
