Ba1 B6
1.0
   4.2764068799999988    0.0000000000000000    0.0000000000000003
  -0.0000000000000003    4.2764068799999988    0.0000000000000003
   0.0000000000000000    0.0000000000000000    4.2764068799999988
Ba B
1 6
direct
   0.0000000000000000    0.0000000000000000    0.0000000000000000 Ba
   0.2056634000000000    0.5000000000000000    0.5000000000000000 B
   0.5000000000000000    0.5000000000000000    0.7943365999999999 B
   0.5000000000000000    0.5000000000000000    0.2056634000000000 B
   0.5000000000000000    0.2056634000000000    0.5000000000000000 B
   0.5000000000000000    0.7943365999999999    0.5000000000000000 B
   0.7943365999999999    0.5000000000000000    0.5000000000000000 B
