Pa2 B6
1.0
   2.7171747852431318   -4.7062847810861568    0.0000000000000000
   2.7171747852431318    4.7062847810861568    0.0000000000000000
   0.0000000000000000    0.0000000000000000    3.4550786600099177
Pa B
2 6
direct
   0.6666666666666666    0.3333333333333333    0.2500000000000000 Pa
   0.3333333333333334    0.6666666666666667    0.7500000000000000 Pa
   0.8875302899999999    0.1124697100000001    0.7500000000000000 B
   0.2249394200000001    0.1124697100000001    0.7500000000000000 B
   0.8875302899999999    0.7750605799999999    0.7500000000000000 B
   0.1124697100000001    0.8875302899999999    0.2500000000000000 B
   0.7750605799999999    0.8875302899999999    0.2500000000000000 B
   0.1124697100000001    0.2249394200000001    0.2500000000000000 B
