Ti1 B2
1.0
   1.5129636559425466   -2.6205299220976488    0.0000000000000000
   1.5129636559425466    2.6205299220976488    0.0000000000000000
   0.0000000000000000    0.0000000000000000    3.2287677100000001
Ti B
1 2
direct
   0.0000000000000000    0.0000000000000000    0.0000000000000000 Ti
   0.3333333333333333    0.6666666666666666    0.5000000000000000 B
   0.6666666666666667    0.3333333333333334    0.5000000000000000 B
